$*$$$$$$$$$$$$$$$$$$$$$$$$$$$$$$$$$$$$$$$$$$$$$$$$$$$$$$$$$$$$$$$$$
$*
$*                    NX v8.5.1.3 TRANSLATOR
$*                    FOR NX NASTRAN VERSION 8.5
$*
$*             FEM FILE: \\prism.nas.gatech.edu\jrevis3\vlab\desktop\4041 Lab\Final Project\NX Parts\Assembly_new_fem1.fem
$*             SIM FILE: \\prism.nas.gatech.edu\jrevis3\vlab\desktop\4041 Lab\Final Project\NX Parts\Assembly_new_sim1.sim
$*        ANALYSIS TYPE: Structural
$*        SOLUTION NAME: Solution 1
$*        SOLUTION TYPE: SOL 101 Linear Statics - Global Constraints
$*
$*    SOLVER INPUT FILE: assembly_new_sim1-solution_1.dat
$*        CREATION DATE: 15-Apr-2014
$*        CREATION TIME: 10:12:02
$*             HOSTNAME: me7vlab061e
$*      NASTRAN LICENSE: Desktop Bundle
$*
$*                UNITS: Inch (pound f)
$*                      ... LENGTH : inch
$*                      ... TIME   : sec
$*                      ... MASS   : lbf-sec**2/in
$*                      ... TEMPERATURE : deg Fahrenheit
$*                      ... FORCE  : pound (lbf)
$*                      ... THERMAL ENERGY : lbf-in
$*
$* IMPORTANT NOTE:
$*     This banner was generated by NX and altering this information
$*     may compromise the NX post processing of results.
$*
$*$$$$$$$$$$$$$$$$$$$$$$$$$$$$$$$$$$$$$$$$$$$$$$$$$$$$$$$$$$$$$$$$$
$*
$*$$$$$$$$$$$$$$$$$$$$$$$$$$$$$$$$$$$
$*
$* NASTRAN
$*
$*$$$$$$$$$$$$$$$$$$$$$$$$$$$$$$$$$$$
$*
NASTRAN ELEMITER=YES
NASTRAN ITER=YES
$*
$*$$$$$$$$$$$$$$$$$$$$$$$$$$$$$$$$$$$
$*
$* FILE MANAGEMENT
$*
$*$$$$$$$$$$$$$$$$$$$$$$$$$$$$$$$$$$$
$*
$*
$*$$$$$$$$$$$$$$$$$$$$$$$$$$$$$$$$$$$
$*
$* EXECUTIVE CONTROL
$*
$*$$$$$$$$$$$$$$$$$$$$$$$$$$$$$$$$$$$
$*
ID,NASTRAN,assembly_new_sim1-solution_1
SOL 101
CEND
$*
$*$$$$$$$$$$$$$$$$$$$$$$$$$$$$$$$$$$$
$*
$* CASE CONTROL
$*
$*$$$$$$$$$$$$$$$$$$$$$$$$$$$$$$$$$$$
$*
ECHO = NONE
SPC = 1
OUTPUT
DISPLACEMENT(PLOT,REAL) = ALL
SPCFORCES(PLOT,REAL) = ALL
STRESS(PLOT,REAL,VONMISES,CENTER) = ALL
$*  NX Step: Subcase - Static Loads 1
SUBCASE 1
LABEL = Subcase - Static Loads 1
LOAD = 2
$*
$*$$$$$$$$$$$$$$$$$$$$$$$$$$$$$$$$$$$
$*
$* BULK DATA
$*
$*$$$$$$$$$$$$$$$$$$$$$$$$$$$$$$$$$$$
$*
BEGIN BULK
$*
$* PARAM CARDS
$*
PARAM      K6ROT100.0000
PARAM    OMACHPR     YES
PARAM       POST      -2
PARAM    POSTEXT     YES
PARAM    UNITSYS  LBF-IN
$*
$* GRID CARDS
$*
GRID*                721               08.4697728055E+00-1.000000000E+00+
*       1.1726625070E+00               0
GRID*                722               08.4516010107E+00-1.000000000E+00+
*       9.2245336060E-01               0
GRID*                723               08.3818057775E+00-1.000000000E+00+
*       6.8148967056E-01               0
GRID*                724               08.2634358044E+00-1.000000000E+00+
*       4.6030317253E-01               0
GRID*                725               08.1016650509E+00-1.000000000E+00+
*       2.6856087997E-01               0
GRID*                726               07.9035642535E+00-1.000000000E+00+
*       1.1464235084E-01               0
GRID*                727               07.6777911450E+00-1.000000000E+00+
*       5.2743035085E-03               0
GRID*                728               07.4342126459E+00-1.000000000E+00+
*       -5.476246258E-02               0
GRID*                729               07.1834746227E+00-1.000000000E+00+
*       -6.284399359E-02               0
GRID*                730               06.9365355374E+00-1.000000000E+00+
*       -1.861812294E-02               0
GRID*                731               06.7041875052E+00-1.000000000E+00+
*       7.5982474129E-02               0
GRID*                732               06.4965858203E+00-1.000000000E+00+
*       2.1682436212E-01               0
GRID*                733               06.3228035604E+00-1.000000000E+00+
*       3.9775137259E-01               0
GRID*                734               06.1904351882E+00-1.000000000E+00+
*       6.1085571115E-01               0
GRID*                735               06.1052661395E+00-1.000000000E+00+
*       8.4682416403E-01               0
GRID*                736               06.0710192655E+00-1.000000000E+00+
*       1.0953438674E+00               0
GRID*                737               06.0891912353E+00-1.000000000E+00+
*       1.3455530186E+00               0
GRID*                738               06.1589865520E+00-1.000000000E+00+
*       1.5865166564E+00               0
GRID*                739               06.2773562756E+00-1.000000000E+00+
*       1.8077032586E+00               0
GRID*                740               06.4391270618E+00-1.000000000E+00+
*       1.9994455194E+00               0
GRID*                741               06.6372279064E+00-1.000000000E+00+
*       2.1533640013E+00               0
GRID*                742               06.8630009692E+00-1.000000000E+00+
*       2.2627321199E+00               0
GRID*                743               07.1065795056E+00-1.000000000E+00+
*       2.3227687479E+00               0
GRID*                744               07.3573175266E+00-1.000000000E+00+
*       2.3308504615E+00               0
GRID*                745               07.6042565815E+00-1.000000000E+00+
*       2.2866244289E+00               0
GRID*                746               07.8366046238E+00-1.000000000E+00+
*       2.1920238729E+00               0
GRID*                747               08.0442062477E+00-1.000000000E+00+
*       2.0511819117E+00               0
GRID*                748               08.2179885346E+00-1.000000000E+00+
*       1.8702549220E+00               0
GRID*                749               08.3503569421E+00-1.000000000E+00+
*       1.6571505980E+00               0
GRID*                755               08.4697728055E+001.0000000000E+00+
*       1.1726625070E+00               0
GRID*                756               08.4516010107E+001.0000000000E+00+
*       9.2245336060E-01               0
GRID*                757               08.3818057775E+001.0000000000E+00+
*       6.8148967056E-01               0
GRID*                758               08.2634358044E+001.0000000000E+00+
*       4.6030317253E-01               0
GRID*                759               08.1016650509E+001.0000000000E+00+
*       2.6856087997E-01               0
GRID*                760               07.9035642535E+001.0000000000E+00+
*       1.1464235084E-01               0
GRID*                761               07.6777911450E+001.0000000000E+00+
*       5.2743035085E-03               0
GRID*                762               07.4342126459E+001.0000000000E+00+
*       -5.476246258E-02               0
GRID*                763               07.1834746227E+001.0000000000E+00+
*       -6.284399359E-02               0
GRID*                764               06.9365355374E+001.0000000000E+00+
*       -1.861812294E-02               0
GRID*                765               06.7041875052E+001.0000000000E+00+
*       7.5982474129E-02               0
GRID*                766               06.4965858203E+001.0000000000E+00+
*       2.1682436212E-01               0
GRID*                767               06.3228035604E+001.0000000000E+00+
*       3.9775137259E-01               0
GRID*                768               06.1904351882E+001.0000000000E+00+
*       6.1085571115E-01               0
GRID*                769               06.1052661395E+001.0000000000E+00+
*       8.4682416403E-01               0
GRID*                770               06.0710192655E+001.0000000000E+00+
*       1.0953438674E+00               0
GRID*                771               06.0891912353E+001.0000000000E+00+
*       1.3455530186E+00               0
GRID*                772               06.1589865520E+001.0000000000E+00+
*       1.5865166564E+00               0
GRID*                773               06.2773562756E+001.0000000000E+00+
*       1.8077032586E+00               0
GRID*                774               06.4391270618E+001.0000000000E+00+
*       1.9994455194E+00               0
GRID*                775               06.6372279064E+001.0000000000E+00+
*       2.1533640013E+00               0
GRID*                776               06.8630009692E+001.0000000000E+00+
*       2.2627321199E+00               0
GRID*                777               07.1065795056E+001.0000000000E+00+
*       2.3227687479E+00               0
GRID*                778               07.3573175266E+001.0000000000E+00+
*       2.3308504615E+00               0
GRID*                779               07.6042565815E+001.0000000000E+00+
*       2.2866244289E+00               0
GRID*                780               07.8366046238E+001.0000000000E+00+
*       2.1920238729E+00               0
GRID*                781               08.0442062477E+001.0000000000E+00+
*       2.0511819117E+00               0
GRID*                782               08.2179885346E+001.0000000000E+00+
*       1.8702549220E+00               0
GRID*                783               08.3503569421E+001.0000000000E+00+
*       1.6571505980E+00               0
GRID*                716               07.2380174682E+00-1.500000000E+00+
*       1.2547368790E+00               0
GRID*                717               07.3587528075E+00-1.500000000E+00+
*       1.2224229855E+00               0
GRID*                718               07.3911516794E+00-1.500000000E+00+
*       1.1017069906E+00               0
GRID*                719               07.3027877166E+00-1.500000000E+00+
*       1.0132729856E+00               0
GRID*                720               07.1820242367E+00-1.500000000E+00+
*       1.0455983946E+00               0
GRID*                711               07.2380174682E+00-1.000000000E+00+
*       1.2547368790E+00               0
GRID*                712               07.3587528075E+00-1.000000000E+00+
*       1.2224229855E+00               0
GRID*                713               07.3911516794E+00-1.000000000E+00+
*       1.1017069906E+00               0
GRID*                714               07.3027877166E+00-1.000000000E+00+
*       1.0132729856E+00               0
GRID*                715               07.1820242367E+00-1.000000000E+00+
*       1.0455983946E+00               0
GRID*                750               07.3027745855E+001.0000000000E+00+
*       1.2547368615E+00               0
GRID*                751               07.1820391829E+001.0000000000E+00+
*       1.2224229875E+00               0
GRID*                752               07.1496403362E+001.0000000000E+00+
*       1.1017068889E+00               0
GRID*                753               07.2380044565E+001.0000000000E+00+
*       1.0132729360E+00               0
GRID*                754               07.3587679388E+001.0000000000E+00+
*       1.0455984625E+00               0
GRID*                784               07.3587679388E+001.5000000000E+00+
*       1.0455984625E+00               0
GRID*                785               07.2380044565E+001.5000000000E+00+
*       1.0132729360E+00               0
GRID*                786               07.1496403362E+001.5000000000E+00+
*       1.1017068889E+00               0
GRID*                787               07.1820391829E+001.5000000000E+00+
*       1.2224229875E+00               0
GRID*                788               07.3027745855E+001.5000000000E+00+
*       1.2547368615E+00               0
GRID*                497               08.4697727533E+007.5000006497E-01+
*       1.1726634008E+00               0
GRID*                498               08.4516015091E+007.5000018932E-01+
*       9.2245598956E-01               0
GRID*                499               08.3818068054E+007.5000017551E-01+
*       6.8149192109E-01               0
GRID*                500               08.2634358328E+007.5000000477E-01+
*       4.6030322090E-01               0
GRID*                501               08.1016659708E+007.5000009218E-01+
*       2.6856180382E-01               0
GRID*                502               07.9035668124E+007.5000021448E-01+
*       1.1464390227E-01               0
GRID*                503               07.6777915856E+007.5000003214E-01+
*       5.2744419517E-03               0
GRID*                504               07.4342128790E+007.5000001799E-01+
*       -5.476241872E-02               0
GRID*                505               07.1834763801E+007.5000012770E-01+
*       -6.284409746E-02               0
GRID*                506               06.9365385823E+007.5000022752E-01+
*       -1.861906942E-02               0
GRID*                507               06.7041866970E+007.4999993153E-01+
*       7.5982964078E-02               0
GRID*                508               06.4965862304E+007.5000003754E-01+
*       2.1682404278E-01               0
GRID*                509               06.3228049308E+007.5000015833E-01+
*       3.9774962990E-01               0
GRID*                510               06.1904364666E+007.5000022193E-01+
*       6.1085289351E-01               0
GRID*                511               06.1052661395E+007.5000000000E-01+
*       8.4682416403E-01               0
GRID*                512               06.0710193220E+007.5000006497E-01+
*       1.0953429907E+00               0
GRID*                513               06.0891907538E+007.5000018932E-01+
*       1.3455504074E+00               0
GRID*                514               06.1589855369E+007.5000017550E-01+
*       1.5865144115E+00               0
GRID*                515               06.2773562469E+007.5000000477E-01+
*       1.8077032098E+00               0
GRID*                516               06.4391261403E+007.5000009218E-01+
*       1.9994445948E+00               0
GRID*                517               06.6372253564E+007.5000021448E-01+
*       2.1533624489E+00               0
GRID*                518               06.8630005267E+007.5000003214E-01+
*       2.2627319812E+00               0
GRID*                519               07.1065792719E+007.5000001799E-01+
*       2.3227687041E+00               0
GRID*                520               07.3573157728E+007.5000012770E-01+
*       2.3308505633E+00               0
GRID*                521               07.6042535393E+007.5000022752E-01+
*       2.2866253709E+00               0
GRID*                522               07.8366054326E+007.4999993153E-01+
*       2.1920233831E+00               0
GRID*                523               08.0442058355E+007.5000003754E-01+
*       2.0511822337E+00               0
GRID*                524               08.2179871646E+007.5000015833E-01+
*       1.8702566619E+00               0
GRID*                525               08.3503556574E+007.5000022193E-01+
*       1.6571533980E+00               0
GRID*                526               08.4697726305E+005.0000022093E-01+
*       1.1726655701E+00               0
GRID*                527               08.4516023431E+005.0000050892E-01+
*       9.2246036334E-01               0
GRID*                528               08.3818044852E+004.9999977540E-01+
*       6.8148685445E-01               0
GRID*                529               08.2634359237E+005.0000001739E-01+
*       4.6030337167E-01               0
GRID*                530               08.1016681110E+005.0000030935E-01+
*       2.6856394603E-01               0
GRID*                531               07.9035701237E+005.0000049207E-01+
*       1.1464590631E-01               0
GRID*                532               07.6777881152E+004.9999977136E-01+
*       5.2733611558E-03               0
GRID*                533               07.4342135208E+005.0000006473E-01+
*       -5.476230114E-02               0
GRID*                534               07.1834801702E+005.0000040004E-01+
*       -6.284432656E-02               0
GRID*                535               06.9365406252E+005.0000038129E-01+
*       -1.861970592E-02               0
GRID*                536               06.7041864596E+004.9999991162E-01+
*       7.5983107800E-02               0
GRID*                537               06.4965872913E+005.0000013424E-01+
*       2.1682321157E-01               0
GRID*                538               06.3228076070E+005.0000046944E-01+
*       3.9774621905E-01               0
GRID*                539               06.1904358154E+005.0000010829E-01+
*       6.1085433081E-01               0
GRID*                540               06.1052661395E+005.0000000000E-01+
*       8.4682416403E-01               0
GRID*                541               06.0710194565E+005.0000022093E-01+
*       1.0953408221E+00               0
GRID*                542               06.0891899425E+005.0000050892E-01+
*       1.3455460295E+00               0
GRID*                543               06.1589878366E+004.9999977539E-01+
*       1.5865194874E+00               0
GRID*                544               06.2773561559E+005.0000001739E-01+
*       1.8077030591E+00               0
GRID*                545               06.4391239991E+005.0000030935E-01+
*       1.9994424536E+00               0
GRID*                546               06.6372220488E+005.0000049208E-01+
*       2.1533604386E+00               0
GRID*                547               06.8630039983E+004.9999977136E-01+
*       2.2627330587E+00               0
GRID*                548               07.1065786301E+005.0000006473E-01+
*       2.3227685867E+00               0
GRID*                549               07.3573119825E+005.0000040004E-01+
*       2.3308507888E+00               0
GRID*                550               07.6042514957E+005.0000038129E-01+
*       2.2866260051E+00               0
GRID*                551               07.8366056702E+004.9999991161E-01+
*       2.1920232395E+00               0
GRID*                552               08.0442047757E+005.0000013424E-01+
*       2.0511830663E+00               0
GRID*                553               08.2179844863E+005.0000046944E-01+
*       1.8702600711E+00               0
GRID*                554               08.3503563148E+005.0000010829E-01+
*       1.6571519636E+00               0
GRID*                555               08.4697724858E+002.5000040431E-01+
*       1.1726681242E+00               0
GRID*                556               08.4516023762E+002.5000052181E-01+
*       9.2246053714E-01               0
GRID*                557               08.3818034251E+002.4999959259E-01+
*       6.8148453972E-01               0
GRID*                558               08.2634360539E+002.5000003548E-01+
*       4.6030358764E-01               0
GRID*                559               08.1016703322E+002.5000053563E-01+
*       2.6856616929E-01               0
GRID*                560               07.9035666100E+002.5000019731E-01+
*       1.1464377976E-01               0
GRID*                561               07.6777879134E+002.4999975619E-01+
*       5.2732983229E-03               0
GRID*                562               07.4342143970E+002.5000012862E-01+
*       -5.476214060E-02               0
GRID*                563               07.1834833644E+002.5000062927E-01+
*       -6.284451965E-02               0
GRID*                564               06.9365317360E+002.4999971345E-01+
*       -1.861693630E-02               0
GRID*                565               06.7041866063E+002.4999992391E-01+
*       7.5983019040E-02               0
GRID*                566               06.4965886519E+002.5000025848E-01+
*       2.1682214549E-01               0
GRID*                567               06.3228090719E+002.5000064026E-01+
*       3.9774435209E-01               0
GRID*                568               06.1904325397E+002.4999953870E-01+
*       6.1086156106E-01               0
GRID*                569               06.1052661395E+002.5000000000E-01+
*       8.4682416403E-01               0
GRID*                570               06.0710196149E+002.5000040431E-01+
*       1.0953382690E+00               0
GRID*                571               06.0891899102E+002.5000052181E-01+
*       1.3455458555E+00               0
GRID*                572               06.1589888872E+002.4999959260E-01+
*       1.5865218063E+00               0
GRID*                573               06.2773560256E+002.5000003548E-01+
*       1.8077028432E+00               0
GRID*                574               06.4391217769E+002.5000053562E-01+
*       1.9994402314E+00               0
GRID*                575               06.6372255585E+002.5000019732E-01+
*       2.1533625717E+00               0
GRID*                576               06.8630042001E+002.4999975619E-01+
*       2.2627331213E+00               0
GRID*                577               07.1065777538E+002.5000012861E-01+
*       2.3227684265E+00               0
GRID*                578               07.3573087881E+002.5000062927E-01+
*       2.3308509788E+00               0
GRID*                579               07.6042603879E+002.4999971346E-01+
*       2.2866232454E+00               0
GRID*                580               07.8366055235E+002.4999992391E-01+
*       2.1920233282E+00               0
GRID*                581               08.0442034165E+002.5000025848E-01+
*       2.0511841342E+00               0
GRID*                582               08.2179830203E+002.5000064026E-01+
*       1.8702619372E+00               0
GRID*                583               08.3503596219E+002.4999953869E-01+
*       1.6571447474E+00               0
GRID*                584               08.4697723859E+005.3083158122E-07+
*       1.1726698880E+00               0
GRID*                585               08.4516003157E+00-2.674078278E-07+
*       9.2244973000E-01               0
GRID*                586               08.3818036370E+00-3.711960919E-07+
*       6.8148500227E-01               0
GRID*                587               08.2634362036E+005.6257176298E-08+
*       4.6030383577E-01               0
GRID*                588               08.1016711098E+006.1552608836E-07+
*       2.6856694765E-01               0
GRID*                589               07.9035576065E+00-5.577459433E-07+
*       1.1463833072E-01               0
GRID*                590               07.6777885573E+00-1.954672936E-07+
*       5.2734988296E-03               0
GRID*                591               07.4342153119E+001.9535333411E-07+
*       -5.476197300E-02               0
GRID*                592               07.1834823746E+005.5780684901E-07+
*       -6.284445982E-02               0
GRID*                593               06.9365273495E+00-6.161894155E-07+
*       -1.861556958E-02               0
GRID*                594               06.7041868430E+00-5.624451090E-08+
*       7.5982875733E-02               0
GRID*                595               06.4965898772E+003.7042144181E-07+
*       2.1682118552E-01               0
GRID*                596               06.3228058596E+002.6737890643E-07+
*       3.9774844609E-01               0
GRID*                597               06.1904321406E+00-5.310325293E-07+
*       6.1086244196E-01               0
GRID*                598               06.1052661395E+000.0000000000E+00+
*       8.4682416403E-01               0
GRID*                599               06.0710197243E+005.3083130119E-07+
*       1.0953365057E+00               0
GRID*                600               06.0891919151E+00-2.674082209E-07+
*       1.3455566728E+00               0
GRID*                601               06.1589886772E+00-3.711904162E-07+
*       1.5865213429E+00               0
GRID*                602               06.2773558759E+005.6255458057E-08+
*       1.8077025952E+00               0
GRID*                603               06.4391209989E+006.1552547766E-07+
*       1.9994394534E+00               0
GRID*                604               06.6372345519E+00-5.577434092E-07+
*       2.1533680375E+00               0
GRID*                605               06.8630035561E+00-1.954695671E-07+
*       2.2627329214E+00               0
GRID*                606               07.1065768389E+001.9535045792E-07+
*       2.3227682592E+00               0
GRID*                607               07.3573097780E+005.5780234841E-07+
*       2.3308509199E+00               0
GRID*                608               07.6042647760E+00-6.161899455E-07+
*       2.2866218835E+00               0
GRID*                609               07.8366052867E+00-5.624634630E-08+
*       2.1920234714E+00               0
GRID*                610               08.0442021925E+003.7041952405E-07+
*       2.0511850958E+00               0
GRID*                611               08.2179862350E+002.6738572749E-07+
*       1.8702578452E+00               0
GRID*                612               08.3503600248E+00-5.310367057E-07+
*       1.6571438682E+00               0
GRID*                613               08.4697724406E+00-2.499995387E-01+
*       1.1726689224E+00               0
GRID*                614               08.4515993411E+00-2.500006404E-01+
*       9.2244461847E-01               0
GRID*                615               08.3818042851E+00-2.500002599E-01+
*       6.8148641755E-01               0
GRID*                616               08.2634363465E+00-2.499999239E-01+
*       4.6030407280E-01               0
GRID*                617               08.1016678623E+00-2.499997135E-01+
*       2.6856369709E-01               0
GRID*                618               07.9035567583E+00-2.500006290E-01+
*       1.1463781735E-01               0
GRID*                619               07.6777894452E+00-2.500001288E-01+
*       5.2737753646E-03               0
GRID*                620               07.4342159751E+00-2.499997562E-01+
*       -5.476185148E-02               0
GRID*                621               07.1834718694E+00-2.500001973E-01+
*       -6.284382480E-02               0
GRID*                622               06.9365284001E+00-2.500005372E-01+
*       -1.861589691E-02               0
GRID*                623               06.7041870908E+00-2.500000355E-01+
*       7.5982725718E-02               0
GRID*                624               06.4965902775E+00-2.499995929E-01+
*       2.1682087188E-01               0
GRID*                625               06.3227990687E+00-2.500005217E-01+
*       3.9775710123E-01               0
GRID*                626               06.1904328697E+00-2.500004047E-01+
*       6.1086083270E-01               0
GRID*                627               06.1052661395E+00-2.500000000E-01+
*       8.4682416403E-01               0
GRID*                628               06.0710196644E+00-2.499995387E-01+
*       1.0953374710E+00               0
GRID*                629               06.0891928633E+00-2.500006404E-01+
*       1.3455617892E+00               0
GRID*                630               06.1589880349E+00-2.500002599E-01+
*       1.5865199250E+00               0
GRID*                631               06.2773557328E+00-2.499999239E-01+
*       1.8077023582E+00               0
GRID*                632               06.4391242478E+00-2.499997135E-01+
*       1.9994427024E+00               0
GRID*                633               06.6372353992E+00-2.500006290E-01+
*       2.1533685525E+00               0
GRID*                634               06.8630026678E+00-2.500001288E-01+
*       2.2627326457E+00               0
GRID*                635               07.1065761756E+00-2.499997562E-01+
*       2.3227681379E+00               0
GRID*                636               07.3573202838E+00-2.500001973E-01+
*       2.3308502951E+00               0
GRID*                637               07.6042637250E+00-2.500005372E-01+
*       2.2866222097E+00               0
GRID*                638               07.8366050387E+00-2.500000355E-01+
*       2.1920236213E+00               0
GRID*                639               08.0442017926E+00-2.499995929E-01+
*       2.0511854100E+00               0
GRID*                640               08.2179930313E+00-2.500005217E-01+
*       1.8702491943E+00               0
GRID*                641               08.3503592887E+00-2.500004047E-01+
*       1.6571454743E+00               0
GRID*                642               08.4697728894E+00-5.000001083E-01+
*       1.1726609971E+00               0
GRID*                643               08.4515997856E+00-5.000004698E-01+
*       9.2244694967E-01               0
GRID*                644               08.3818050048E+00-5.000001361E-01+
*       6.8148798915E-01               0
GRID*                645               08.2634364350E+00-4.999999116E-01+
*       4.6030421960E-01               0
GRID*                646               08.1016612821E+00-5.000003810E-01+
*       2.6855711062E-01               0
GRID*                647               07.9035594960E+00-5.000003995E-01+
*       1.1463947426E-01               0
GRID*                648               07.6777902957E+00-5.000000650E-01+
*       5.2740402359E-03               0
GRID*                649               07.4342157672E+00-4.999997714E-01+
*       -5.476188959E-02               0
GRID*                650               07.1834677701E+00-5.000004924E-01+
*       -6.284357700E-02               0
GRID*                651               06.9365314005E+00-5.000003116E-01+
*       -1.861683177E-02               0
GRID*                652               06.7041873065E+00-5.000000174E-01+
*       7.5982595152E-02               0
GRID*                653               06.4965882733E+00-4.999997754E-01+
*       2.1682244216E-01               0
GRID*                654               06.3227991780E+00-5.000005085E-01+
*       3.9775696191E-01               0
GRID*                655               06.1904339254E+00-5.000002214E-01+
*       6.1085850261E-01               0
GRID*                656               06.1052661395E+00-5.000000000E-01+
*       8.4682416403E-01               0
GRID*                657               06.0710191729E+00-5.000001083E-01+
*       1.0953453936E+00               0
GRID*                658               06.0891924309E+00-5.000004698E-01+
*       1.3455594558E+00               0
GRID*                659               06.1589873215E+00-5.000001361E-01+
*       1.5865183506E+00               0
GRID*                660               06.2773556442E+00-4.999999116E-01+
*       1.8077022115E+00               0
GRID*                661               06.4391308312E+00-5.000003810E-01+
*       1.9994492858E+00               0
GRID*                662               06.6372326646E+00-5.000003995E-01+
*       2.1533668905E+00               0
GRID*                663               06.8630018171E+00-5.000000650E-01+
*       2.2627323817E+00               0
GRID*                664               07.1065763836E+00-4.999997714E-01+
*       2.3227681759E+00               0
GRID*                665               07.3573243833E+00-5.000004924E-01+
*       2.3308500512E+00               0
GRID*                666               07.6042607236E+00-5.000003116E-01+
*       2.2866231412E+00               0
GRID*                667               07.8366048230E+00-5.000000174E-01+
*       2.1920237517E+00               0
GRID*                668               08.0442037947E+00-4.999997754E-01+
*       2.0511838371E+00               0
GRID*                669               08.2179929220E+00-5.000005085E-01+
*       1.8702493335E+00               0
GRID*                670               08.3503582230E+00-5.000002214E-01+
*       1.6571477998E+00               0
GRID*                671               08.4697729786E+00-7.500002217E-01+
*       1.1726594220E+00               0
GRID*                672               08.4516005976E+00-7.500001588E-01+
*       9.2245120849E-01               0
GRID*                673               08.3818055659E+00-7.500000394E-01+
*       6.8148921439E-01               0
GRID*                674               08.2634362916E+00-7.499999315E-01+
*       4.6030398182E-01               0
GRID*                675               08.1016627945E+00-7.500002263E-01+
*       2.6855862447E-01               0
GRID*                676               07.9035627444E+00-7.500001271E-01+
*       1.1464144022E-01               0
GRID*                677               07.6777909186E+00-7.500000183E-01+
*       5.2742342164E-03               0
GRID*                678               07.4342121916E+00-7.500000322E-01+
*       -5.476254466E-02               0
GRID*                679               07.1834716337E+00-7.500002150E-01+
*       -6.284381055E-02               0
GRID*                680               06.9365342916E+00-7.500000942E-01+
*       -1.861773254E-02               0
GRID*                681               06.7041874571E+00-7.500000048E-01+
*       7.5982503995E-02               0
GRID*                682               06.4965838869E+00-7.500001749E-01+
*       2.1682587884E-01               0
GRID*                683               06.3228019264E+00-7.500001888E-01+
*       3.9775345901E-01               0
GRID*                684               06.1904348220E+00-7.500000654E-01+
*       6.1085652349E-01               0
GRID*                685               06.1052661395E+00-7.500000000E-01+
*       8.4682416403E-01               0
GRID*                686               06.0710190753E+00-7.500002217E-01+
*       1.0953469682E+00               0
GRID*                687               06.0891916408E+00-7.500001588E-01+
*       1.3455551929E+00               0
GRID*                688               06.1589867654E+00-7.500000394E-01+
*       1.5865171231E+00               0
GRID*                689               06.2773557877E+00-7.499999315E-01+
*       1.8077024491E+00               0
GRID*                690               06.4391293181E+00-7.500002263E-01+
*       1.9994477727E+00               0
GRID*                691               06.6372294199E+00-7.500001271E-01+
*       2.1533649185E+00               0
GRID*                692               06.8630011940E+00-7.500000183E-01+
*       2.2627321883E+00               0
GRID*                693               07.1065799593E+00-7.500000321E-01+
*       2.3227688298E+00               0
GRID*                694               07.3573205195E+00-7.500002150E-01+
*       2.3308502810E+00               0
GRID*                695               07.6042578315E+00-7.500000942E-01+
*       2.2866240388E+00               0
GRID*                696               07.8366046723E+00-7.500000048E-01+
*       2.1920238428E+00               0
GRID*                697               08.0442081766E+00-7.500001749E-01+
*       2.0511803946E+00               0
GRID*                698               08.2179901714E+00-7.500001888E-01+
*       1.8702528347E+00               0
GRID*                699               08.3503573177E+00-7.500000654E-01+
*       1.6571497751E+00               0
GRID*                326               06.9400148183E+00-1.000000000E+00+
*       2.0102258346E+00               0
GRID*                327               07.0108195084E+00-1.000000000E+00+
*       1.7512827817E+00               0
GRID*                328               07.0646524752E+00-1.000000000E+00+
*       1.5123452702E+00               0
GRID*                329               07.1054635107E+00-1.000000000E+00+
*       1.3067434392E+00               0
GRID*                330               07.6263628149E+00-1.000000000E+00+
*       2.4643299025E-01               0
GRID*                331               07.5759288342E+00-1.000000000E+00+
*       5.2479406125E-01               0
GRID*                332               07.4510081771E+00-1.000000000E+00+
*       7.3962865107E-01               0
GRID*                333               07.3826765668E+00-1.000000000E+00+
*       9.2653061184E-01               0
GRID*                334               06.2700960065E+00-1.000000000E+00+
*       1.2893918525E+00               0
GRID*                335               06.5052026531E+00-1.000000000E+00+
*       1.2278514599E+00               0
GRID*                336               06.7501557166E+00-1.000000000E+00+
*       1.1749950788E+00               0
GRID*                337               06.9991791274E+00-1.000000000E+00+
*       1.1366308159E+00               0
GRID*                338               06.4424896264E+00-1.000000000E+00+
*       1.4645471355E+00               0
GRID*                339               06.6083396674E+00-1.000000000E+00+
*       1.6280701053E+00               0
GRID*                340               06.7617545240E+00-1.000000000E+00+
*       1.8202173499E+00               0
GRID*                341               06.4055858957E+00-1.000000000E+00+
*       1.6665828813E+00               0
GRID*                342               06.5203137591E+00-1.000000000E+00+
*       1.8374068471E+00               0
GRID*                343               06.6757659254E+00-1.000000000E+00+
*       1.4046449587E+00               0
GRID*                344               06.9062207020E+00-1.000000000E+00+
*       1.3523401495E+00               0
GRID*                345               06.8377417397E+00-1.000000000E+00+
*       1.5774394906E+00               0
GRID*                346               07.2991457795E+00-1.000000000E+00+
*       5.6390994446E-01               0
GRID*                347               07.0689816474E+00-1.000000000E+00+
*       6.1690219195E-01               0
GRID*                348               06.8457776608E+00-1.000000000E+00+
*       6.9056338201E-01               0
GRID*                349               06.6121960047E+00-1.000000000E+00+
*       7.6596540453E-01               0
GRID*                350               06.3703261571E+00-1.000000000E+00+
*       8.1532603567E-01               0
GRID*                351               07.3590947144E+00-1.000000000E+00+
*       3.3477851624E-01               0
GRID*                352               07.1499461929E+00-1.000000000E+00+
*       1.6644131530E-01               0
GRID*                353               07.4036052059E+00-1.000000000E+00+
*       1.1000779778E-01               0
GRID*                354               07.1085053827E+00-1.000000000E+00+
*       3.9786040755E-01               0
GRID*                355               06.9057595243E+00-1.000000000E+00+
*       2.3568784523E-01               0
GRID*                356               06.8705684354E+00-1.000000000E+00+
*       4.6875981252E-01               0
GRID*                357               06.6630307658E+00-1.000000000E+00+
*       3.2386145348E-01               0
GRID*                358               06.6292484934E+00-1.000000000E+00+
*       5.4835195519E-01               0
GRID*                359               06.4264009133E+00-1.000000000E+00+
*       6.2898566909E-01               0
GRID*                360               07.2035591354E+00-1.000000000E+00+
*       9.2383563285E-01               0
GRID*                361               07.2422910205E+00-1.000000000E+00+
*       7.6472271126E-01               0
GRID*                362               07.0623161101E+00-1.000000000E+00+
*       9.7091696564E-01               0
GRID*                363               07.0468576664E+00-1.000000000E+00+
*       8.1619264505E-01               0
GRID*                364               06.8402881003E+00-1.000000000E+00+
*       9.3528148587E-01               0
GRID*                365               06.3151915295E+00-1.000000000E+00+
*       1.0454064705E+00               0
GRID*                366               06.5644350748E+00-1.000000000E+00+
*       9.9456399580E-01               0
GRID*                367               08.2051170186E+00-1.000000000E+00+
*       1.0396932899E+00               0
GRID*                368               07.9309867696E+00-1.000000000E+00+
*       1.0696155872E+00               0
GRID*                369               07.6786097975E+00-1.000000000E+00+
*       1.1033280180E+00               0
GRID*                370               07.4939352916E+00-1.000000000E+00+
*       1.1904351720E+00               0
GRID*                371               07.9954839028E+00-1.000000000E+00+
*       8.2424943619E-01               0
GRID*                372               08.0399171085E+00-1.000000000E+00+
*       5.5984375223E-01               0
GRID*                373               08.2190088679E+00-1.000000000E+00+
*       7.4876104481E-01               0
GRID*                374               07.5703422495E+00-1.000000000E+00+
*       9.0479240422E-01               0
GRID*                375               07.7703011877E+00-1.000000000E+00+
*       8.8260957234E-01               0
GRID*                376               07.5006675564E+00-1.000000000E+00+
*       1.0461172431E+00               0
GRID*                377               07.6361501201E+00-1.000000000E+00+
*       7.4490508773E-01               0
GRID*                378               07.8116395955E+00-1.000000000E+00+
*       6.5640098711E-01               0
GRID*                379               07.8439123993E+00-1.000000000E+00+
*       3.9505171752E-01               0
GRID*                380               07.6498491276E+00-1.000000000E+00+
*       2.0177204977E+00               0
GRID*                381               07.7062643621E+00-1.000000000E+00+
*       1.7624459799E+00               0
GRID*                382               07.7750499902E+00-1.000000000E+00+
*       1.5217028605E+00               0
GRID*                383               07.8494494455E+00-1.000000000E+00+
*       1.2975750418E+00               0
GRID*                384               08.2169534157E+00-1.000000000E+00+
*       1.4556472197E+00               0
GRID*                385               08.0054356391E+00-1.000000000E+00+
*       1.4795329371E+00               0
GRID*                386               08.0811347960E+00-1.000000000E+00+
*       1.2716312894E+00               0
GRID*                387               08.2816267045E+00-1.000000000E+00+
*       1.2758697452E+00               0
GRID*                388               08.1486801053E+00-1.000000000E+00+
*       1.6283816511E+00               0
GRID*                389               07.9542046719E+00-1.000000000E+00+
*       1.6965868385E+00               0
GRID*                390               07.8952179303E+00-1.000000000E+00+
*       1.9301398656E+00               0
GRID*                391               07.2494115000E+00-1.000000000E+00+
*       1.6666359153E+00               0
GRID*                392               07.5009880905E+00-1.000000000E+00+
*       1.5543701604E+00               0
GRID*                393               07.4512863785E+00-1.000000000E+00+
*       1.8357898458E+00               0
GRID*                394               07.2002358344E+00-1.000000000E+00+
*       1.9174152332E+00               0
GRID*                395               07.4010021214E+00-1.000000000E+00+
*       2.0897597431E+00               0
GRID*                396               07.1469297360E+00-1.000000000E+00+
*       2.1511589728E+00               0
GRID*                397               07.2701911425E+00-1.000000000E+00+
*       1.4202021267E+00               0
GRID*                398               07.4295433506E+00-1.000000000E+00+
*       1.3337491211E+00               0
GRID*                399               07.6210622527E+00-1.000000000E+00+
*       1.3322023111E+00               0
GRID*                400               07.3254720508E+00-1.000000000E+00+
*       1.3027233896E+00               0
GRID*                401               07.0515276155E+001.0000000000E+00+
*       2.3796197981E-01               0
GRID*                402               07.0812533425E+001.0000000000E+00+
*       5.0342575541E-01               0
GRID*                403               07.1413979648E+001.0000000000E+00+
*       7.1540793159E-01               0
GRID*                404               07.1979552979E+001.0000000000E+00+
*       8.9187943087E-01               0
GRID*                405               07.6077042794E+001.0000000000E+00+
*       2.0096915469E+00               0
GRID*                406               07.5206193499E+001.0000000000E+00+
*       1.7711110927E+00               0
GRID*                407               07.4360487201E+001.0000000000E+00+
*       1.5664277483E+00               0
GRID*                408               07.3609257516E+001.0000000000E+00+
*       1.3873578691E+00               0
GRID*                409               06.6871210865E+001.0000000000E+00+
*       1.8592104009E+00               0
GRID*                410               06.8544009065E+001.0000000000E+00+
*       1.6595341693E+00               0
GRID*                411               06.9887173991E+001.0000000000E+00+
*       1.4833245216E+00               0
GRID*                412               07.1030628422E+001.0000000000E+00+
*       1.3325252193E+00               0
GRID*                413               06.3545598615E+001.0000000000E+00+
*       9.8911626028E-01               0
GRID*                414               06.6132667295E+001.0000000000E+00+
*       1.0334182081E+00               0
GRID*                415               06.8337664273E+001.0000000000E+00+
*       1.0615352856E+00               0
GRID*                416               07.0198504028E+001.0000000000E+00+
*       1.0861212282E+00               0
GRID*                417               06.9184037962E+001.0000000000E+00+
*       6.8112050549E-01               0
GRID*                418               06.7680491791E+001.0000000000E+00+
*       8.6178715800E-01               0
GRID*                419               07.0000000963E+001.0000000000E+00+
*       8.9940706366E-01               0
GRID*                420               07.1244125508E+001.0000000000E+00+
*       1.0008165136E+00               0
GRID*                421               06.8469182977E+001.0000000000E+00+
*       4.6186075328E-01               0
GRID*                422               06.6836319840E+001.0000000000E+00+
*       6.6187434491E-01               0
GRID*                423               06.5690786825E+001.0000000000E+00+
*       8.4505076308E-01               0
GRID*                424               06.7706087412E+001.0000000000E+00+
*       2.4028453924E-01               0
GRID*                425               06.4048207529E+001.0000000000E+00+
*       6.8415746702E-01               0
GRID*                426               06.5890651933E+001.0000000000E+00+
*       4.4242642668E-01               0
GRID*                427               06.6955069326E+001.0000000000E+00+
*       1.2420713863E+00               0
GRID*                428               06.7810584312E+001.0000000000E+00+
*       1.4481392161E+00               0
GRID*                429               06.9285440236E+001.0000000000E+00+
*       1.2649242925E+00               0
GRID*                430               07.0804004721E+001.0000000000E+00+
*       1.1995391680E+00               0
GRID*                431               06.4700046550E+001.0000000000E+00+
*       1.2204564883E+00               0
GRID*                432               06.5654774475E+001.0000000000E+00+
*       1.4312669930E+00               0
GRID*                433               06.6684621269E+001.0000000000E+00+
*       1.6092702243E+00               0
GRID*                434               06.2632516171E+001.0000000000E+00+
*       1.2141398690E+00               0
GRID*                435               06.4479560582E+001.0000000000E+00+
*       1.6690768309E+00               0
GRID*                436               06.3324660151E+001.0000000000E+00+
*       1.4093596452E+00               0
GRID*                437               07.0771032081E+001.0000000000E+00+
*       1.6912090997E+00               0
GRID*                438               07.2996416456E+001.0000000000E+00+
*       1.7229904425E+00               0
GRID*                439               07.2139771081E+001.0000000000E+00+
*       1.5032659463E+00               0
GRID*                440               07.2326607495E+001.0000000000E+00+
*       1.3358829703E+00               0
GRID*                441               06.9454038684E+001.0000000000E+00+
*       1.8741652738E+00               0
GRID*                442               07.1763052019E+001.0000000000E+00+
*       1.8976462023E+00               0
GRID*                443               07.3824902207E+001.0000000000E+00+
*       1.9003957829E+00               0
GRID*                444               06.8363495618E+001.0000000000E+00+
*       2.0482104214E+00               0
GRID*                445               07.3231674548E+001.0000000000E+00+
*       2.1170763617E+00               0
GRID*                446               07.0401212207E+001.0000000000E+00+
*       2.0862644917E+00               0
GRID*                447               07.4586608497E+001.0000000000E+00+
*       9.5043493025E-01               0
GRID*                448               07.5984530957E+001.0000000000E+00+
*       8.1841063009E-01               0
GRID*                449               07.7663068732E+001.0000000000E+00+
*       6.6233761649E-01               0
GRID*                450               07.9698267177E+001.0000000000E+00+
*       4.9452973228E-01               0
GRID*                451               07.5212776542E+001.0000000000E+00+
*       6.0605261124E-01               0
GRID*                452               07.2959107195E+001.0000000000E+00+
*       5.6100347432E-01               0
GRID*                453               07.3621305035E+001.0000000000E+00+
*       7.8270708805E-01               0
GRID*                454               07.3217444229E+001.0000000000E+00+
*       9.4076233549E-01               0
GRID*                455               07.6744661622E+001.0000000000E+00+
*       4.3509576403E-01               0
GRID*                456               07.4342014503E+001.0000000000E+00+
*       3.9384259103E-01               0
GRID*                457               07.2381989833E+001.0000000000E+00+
*       3.7767331546E-01               0
GRID*                458               07.8115158053E+001.0000000000E+00+
*       2.5612840033E-01               0
GRID*                459               07.3186230958E+001.0000000000E+00+
*       1.8286268299E-01               0
GRID*                460               07.5592761495E+001.0000000000E+00+
*       2.0457649592E-01               0
GRID*                461               08.2335142963E+001.0000000000E+00+
*       1.3711661631E+00               0
GRID*                462               07.9826170175E+001.0000000000E+00+
*       1.3088966227E+00               0
GRID*                463               07.7431449951E+001.0000000000E+00+
*       1.2498437617E+00               0
GRID*                464               07.5399772313E+001.0000000000E+00+
*       1.2007879000E+00               0
GRID*                465               08.0554764919E+001.0000000000E+00+
*       1.5269951440E+00               0
GRID*                466               07.8920358133E+001.0000000000E+00+
*       1.6644877257E+00               0
GRID*                467               07.7509289014E+001.0000000000E+00+
*       1.8139761906E+00               0
GRID*                468               08.0921878704E+001.0000000000E+00+
*       1.7158158520E+00               0
GRID*                469               07.8447356082E+001.0000000000E+00+
*       1.9813520033E+00               0
GRID*                470               07.9723233035E+001.0000000000E+00+
*       1.8490554231E+00               0
GRID*                471               07.8179715976E+001.0000000000E+00+
*       1.4599382689E+00               0
GRID*                472               07.6647263486E+001.0000000000E+00+
*       1.6121025223E+00               0
GRID*                473               07.4284609105E+001.0000000000E+00+
*       1.2772212675E+00               0
GRID*                474               07.5701821193E+001.0000000000E+00+
*       1.3934858466E+00               0
GRID*                475               07.9037815389E+001.0000000000E+00+
*       1.0962492365E+00               0
GRID*                476               07.8317030342E+001.0000000000E+00+
*       8.8446716735E-01               0
GRID*                477               07.4744318193E+001.0000000000E+00+
*       1.0815754675E+00               0
GRID*                478               07.6501417800E+001.0000000000E+00+
*       1.0401445055E+00               0
GRID*                479               08.1473082940E+001.0000000000E+00+
*       1.1494370086E+00               0
GRID*                480               08.0640815132E+001.0000000000E+00+
*       9.4902819208E-01               0
GRID*                481               08.0049764578E+001.0000000000E+00+
*       7.4451874892E-01               0
GRID*                482               08.2673607511E+001.0000000000E+00+
*       9.9884287139E-01               0
GRID*                483               08.1706004884E+001.0000000000E+00+
*       6.4392368236E-01               0
GRID*                484               08.2221453826E+001.0000000000E+00+
*       8.2307128667E-01               0
GRID*                316               07.2380174683E+00-1.166666667E+00+
*       1.2547368790E+00               0
GRID*                317               07.3587528073E+00-1.166666667E+00+
*       1.2224229857E+00               0
GRID*                318               07.3911516795E+00-1.166666667E+00+
*       1.1017069910E+00               0
GRID*                319               07.3027877167E+00-1.166666667E+00+
*       1.0132729855E+00               0
GRID*                320               07.1820242365E+00-1.166666667E+00+
*       1.0455983949E+00               0
GRID*                321               07.2380174684E+00-1.333333333E+00+
*       1.2547368790E+00               0
GRID*                322               07.3587528075E+00-1.333333333E+00+
*       1.2224229855E+00               0
GRID*                323               07.3911516794E+00-1.333333333E+00+
*       1.1017069908E+00               0
GRID*                324               07.3027877166E+00-1.333333333E+00+
*       1.0132729856E+00               0
GRID*                325               07.1820242364E+00-1.333333333E+00+
*       1.0455983949E+00               0
GRID*                487               07.3027745855E+001.1666666667E+00+
*       1.2547368615E+00               0
GRID*                488               07.1820391831E+001.1666666667E+00+
*       1.2224229876E+00               0
GRID*                489               07.1496403361E+001.1666666667E+00+
*       1.1017068893E+00               0
GRID*                490               07.2380044565E+001.1666666667E+00+
*       1.0132729360E+00               0
GRID*                491               07.3587679391E+001.1666666667E+00+
*       1.0455984628E+00               0
GRID*                492               07.3027745854E+001.3333333333E+00+
*       1.2547368615E+00               0
GRID*                493               07.1820391829E+001.3333333333E+00+
*       1.2224229875E+00               0
GRID*                494               07.1496403362E+001.3333333333E+00+
*       1.1017068891E+00               0
GRID*                495               07.2380044565E+001.3333333333E+00+
*       1.0132729360E+00               0
GRID*                496               07.3587679392E+001.3333333333E+00+
*       1.0455984629E+00               0
GRID*                485               07.2703987412E+00-1.500000000E+00+
*       1.1340166330E+00               0
GRID*                486               07.2703938545E+001.5000000000E+00+
*       1.1340168636E+00               0
GRID*                  1               06.3191007345E+00-2.255257237E-01+
*       1.2786604770E+00               0
GRID*                  2               06.4533424323E+00-6.501056671E-02+
*       1.4924067040E+00               0
GRID*                  3               06.7971286284E+00-5.142025165E-02+
*       1.6229079875E+00               0
GRID*                  4               06.6951643625E+00-1.675556695E-01+
*       1.8802161796E+00               0
GRID*                  5               06.7139751976E+00-3.295336601E-01+
*       1.6291714577E+00               0
GRID*                  6               06.4584297179E+001.1452425753E-01+
*       1.7153729859E+00               0
GRID*                  7               06.9678961687E+002.6753465902E-01+
*       1.2783789588E+00               0
GRID*                  8               06.6616396257E+001.9397048148E-01+
*       1.3456950054E+00               0
GRID*                  9               06.7515747342E+004.5277362455E-01+
*       1.4850896515E+00               0
GRID*                 10               06.6300927419E+004.6174955082E-01+
*       1.2562145893E+00               0
GRID*                 11               07.2033962793E+004.1184322298E-01+
*       1.1298962695E+00               0
GRID*                 12               07.0765149224E+004.2769125241E-01+
*       1.3787517608E+00               0
GRID*                 13               07.2810336146E+002.6788818028E-01+
*       1.2878814158E+00               0
GRID*                 14               06.9018666614E+003.4310648912E-01+
*       9.7825920502E-01               0
GRID*                 15               07.1497643594E+002.0036752933E-01+
*       1.1114548727E+00               0
GRID*                 16               06.8624920917E+006.8223634112E-02+
*       1.1795500257E+00               0
GRID*                 17               06.9956560746E+004.4649145345E-01+
*       1.1637682502E+00               0
GRID*                 18               07.1021492484E+004.8295992276E-02+
*       1.3520044176E+00               0
GRID*                 19               06.8749457600E+002.1511201174E-01+
*       1.6308055692E+00               0
GRID*                 20               07.2725253337E+00-1.552465470E-01+
*       1.4207844847E+00               0
GRID*                 21               07.4649200384E+00-2.836985801E-01+
*       1.5222507562E+00               0
GRID*                 22               07.3708350820E+001.9482525559E-02+
*       1.4619837410E+00               0
GRID*                 23               07.4413342216E+001.3272971519E-02+
*       1.7880832888E+00               0
GRID*                 24               07.2641745868E+00-1.602038248E-01+
*       1.1713544513E+00               0
GRID*                 25               06.9730646405E+00-2.475987961E-01+
*       1.3052027074E+00               0
GRID*                 26               07.0850244049E+00-1.810846507E-02+
*       1.6765303098E+00               0
GRID*                 27               07.1204515930E+00-2.965569458E-01+
*       1.5601408886E+00               0
GRID*                 28               06.9503085923E+006.1185949796E-02+
*       9.1417026084E-01               0
GRID*                 29               06.9623096059E+00-2.585693457E-01+
*       8.6482397927E-01               0
GRID*                 30               07.0527043970E+00-5.406751022E-02+
*       1.0830495047E+00               0
GRID*                 31               06.6855318320E+00-5.035215254E-02+
*       9.7629053962E-01               0
GRID*                 32               06.9744722959E+00-2.707247584E-01+
*       1.1123107131E+00               0
GRID*                 33               07.2742444446E+00-1.211511648E+00+
*       1.1218903316E+00               0
GRID*                 34               07.3100105257E+00-1.284295236E+00+
*       1.1041534735E+00               0
GRID*                 35               06.5230585880E+009.4323652067E-03+
*       6.3204318453E-01               0
GRID*                 36               06.6906471116E+002.2617815212E-01+
*       8.9107406852E-01               0
GRID*                 37               06.7954189537E+00-2.337263164E-02+
*       6.7724323704E-01               0
GRID*                 38               07.2641703171E+00-8.659879143E-01+
*       6.0402969112E-01               0
GRID*                 39               06.2746287462E+001.7282327055E-01+
*       1.0388083116E+00               0
GRID*                 40               06.5805521991E+00-1.514810709E-02+
*       1.2160837452E+00               0
GRID*                 41               06.7208326579E+00-3.534168960E-01+
*       7.9702792385E-01               0
GRID*                 42               06.7194596922E+00-2.771875738E-01+
*       1.1332439048E+00               0
GRID*                 43               06.3744097601E+00-1.233152024E-01+
*       9.0464881232E-01               0
GRID*                 44               07.3541215328E+007.3674606839E-02+
*       6.1575134238E-01               0
GRID*                 45               07.4964808348E+003.1203216709E-01+
*       7.1707843224E-01               0
GRID*                 46               07.4025551922E+001.8942823510E-01+
*       3.6799102346E-01               0
GRID*                 47               07.3728080643E+004.8678501464E-01+
*       6.4758484284E-01               0
GRID*                 48               07.6640007966E+002.2529426556E-01+
*       4.9469351732E-01               0
GRID*                 49               07.5751841532E+00-5.446781979E-03+
*       6.2903928744E-01               0
GRID*                 50               06.9732436252E+00-8.244592225E-01+
*       8.0688918458E-01               0
GRID*                 51               07.0533496338E+00-5.821817003E-01+
*       9.8496392056E-01               0
GRID*                 52               07.1091138877E+00-8.581752583E-01+
*       8.1577727704E-01               0
GRID*                 53               07.1886494336E+00-6.562605360E-01+
*       6.9175066486E-01               0
GRID*                 54               07.2232566142E+00-2.201222495E-01+
*       7.6383439959E-01               0
GRID*                 55               07.0724765565E+00-9.681776350E-03+
*       7.2639087045E-01               0
GRID*                 56               07.3340971138E+00-2.446388816E-01+
*       5.0293465401E-01               0
GRID*                 57               07.2915165905E+00-1.426848167E-01+
*       2.4110817809E-01               0
GRID*                 58               07.1237286655E+001.5344317370E-01+
*       5.1707691917E-01               0
GRID*                 59               07.5615304309E+00-1.615798781E-01+
*       1.7053757873E-01               0
GRID*                 60               07.1695869189E+002.0098842599E-01+
*       8.4443014654E-01               0
GRID*                 61               07.3810527846E+001.2474680514E-01+
*       9.6805012169E-01               0
GRID*                 62               07.4250753042E+00-1.416077934E-01+
*       1.0252939651E+00               0
GRID*                 63               07.1768201042E+00-3.930311590E-01+
*       9.5892815011E-01               0
GRID*                 64               07.4107675523E+00-4.066422222E-01+
*       9.6516147102E-01               0
GRID*                 65               07.0201368117E+00-4.717132916E-01+
*       7.4540405626E-01               0
GRID*                 66               07.3173883154E+00-5.402261198E-01+
*       8.0249984419E-01               0
GRID*                 67               07.4619206054E+00-5.446958890E-01+
*       5.6704817706E-01               0
GRID*                 68               07.4936679912E+00-2.263247507E-01+
*       8.0364262939E-01               0
GRID*                 69               07.0833071188E+00-4.547060279E-01+
*       1.2371591456E+00               0
GRID*                 70               06.8863072485E+00-5.172861352E-01+
*       1.4529122558E+00               0
GRID*                 71               07.1043162918E+00-6.161568731E-01+
*       1.3737030154E+00               0
GRID*                 72               07.2653335836E+00-4.976937063E-01+
*       1.4982827615E+00               0
GRID*                 73               07.3987114278E+00-5.485649010E-01+
*       1.2976692459E+00               0
GRID*                 74               07.2928274812E+00-3.708446164E-01+
*       1.1447854432E+00               0
GRID*                 75               07.2221903869E+00-3.186142451E-01+
*       1.3272601165E+00               0
GRID*                 76               07.1519874822E+00-4.913109071E-01+
*       3.9709130667E-01               0
GRID*                 77               07.2594383433E+00-3.343017612E-01+
*       1.2124572096E-01               0
GRID*                 78               07.4326004215E+00-4.945491233E-01+
*       2.0513136659E-01               0
GRID*                 79               07.0584923480E+00-1.217743551E-01+
*       2.5179119516E-01               0
GRID*                 80               07.1900379510E+00-7.155132336E-01+
*       1.5104544386E-01               0
GRID*                 81               06.9753625863E+00-3.622182379E-01+
*       2.0502535690E-01               0
GRID*                 82               07.7143457179E+002.6202629836E-01+
*       8.2105496329E-01               0
GRID*                 83               07.8298458788E+007.0020208053E-02+
*       6.7828038535E-01               0
GRID*                 84               08.0012734159E+004.2302690105E-01+
*       4.7456055903E-01               0
GRID*                 85               08.0712736990E+001.5429940293E-01+
*       6.5098455528E-01               0
GRID*                 86               07.6417104960E+005.9798692812E-01+
*       8.4672651914E-01               0
GRID*                 87               07.6382057929E+004.3767197845E-01+
*       1.0019678827E+00               0
GRID*                 88               07.9349029617E+004.9725190281E-01+
*       8.8282695045E-01               0
GRID*                 89               07.9002284652E+002.0718112681E-01+
*       9.6583625253E-01               0
GRID*                 90               07.4947816273E+00-2.625763639E-02+
*       1.2202011374E+00               0
GRID*                 91               07.4855816985E+00-3.476241707E-01+
*       1.2270928667E+00               0
GRID*                 92               06.3715957920E+006.3338867025E-01+
*       1.5328906661E+00               0
GRID*                 93               07.6523218494E+00-5.313156557E-02+
*       9.2275473573E-01               0
GRID*                 94               07.2940243165E+004.3481256030E-02+
*       1.2264066126E+00               0
GRID*                 95               07.6085485708E+001.9092902043E-01+
*       1.1407617742E+00               0
GRID*                 96               07.5403515007E+001.9482884515E-01+
*       1.4141397723E+00               0
GRID*                 97               07.7344195339E+00-1.164252803E-01+
*       1.1937343733E+00               0
GRID*                 98               07.9358826329E+00-5.503133534E-02+
*       1.0579004026E+00               0
GRID*                 99               07.8604387334E+00-2.868650095E-01+
*       8.7763190015E-01               0
GRID*                100               07.9242776764E+009.7034091920E-02+
*       3.7373045207E-01               0
GRID*                101               07.9288681327E+00-1.578884911E-01+
*       3.7781501143E-01               0
GRID*                102               08.1379443501E+00-1.691105512E-01+
*       7.5942585994E-01               0
GRID*                103               07.2779077251E+00-7.087923441E-01+
*       1.3247035314E+00               0
GRID*                104               07.1607223931E+00-6.170666531E-01+
*       1.1555891924E+00               0
GRID*                105               07.0155942174E+00-7.025510514E-01+
*       1.2147151069E+00               0
GRID*                106               07.1660077819E+00-8.434937303E-01+
*       1.3681276405E+00               0
GRID*                107               07.1710919845E+00-8.738506586E-01+
*       1.1926214634E+00               0
GRID*                108               06.7581545895E+00-1.618588938E-01+
*       1.4113712963E+00               0
GRID*                109               06.6032294622E+00-4.476669645E-01+
*       1.4825694531E+00               0
GRID*                110               08.0599401653E+00-7.448217346E-01+
*       1.3649574726E+00               0
GRID*                111               07.7354970283E+00-8.708846097E-01+
*       1.1750770901E+00               0
GRID*                112               07.8125893261E+00-7.802250861E-01+
*       1.3872069222E+00               0
GRID*                113               08.1722254822E+007.3744560581E-01+
*       7.9485371660E-01               0
GRID*                114               08.2381525958E+004.7923547521E-01+
*       1.1466665059E+00               0
GRID*                115               08.1337044895E+008.1970181818E-01+
*       9.9034162358E-01               0
GRID*                116               06.9661761296E+00-1.865435250E-01+
*       5.4838856419E-01               0
GRID*                117               07.6413594319E+00-8.011552723E-01+
*       2.1207769524E+00               0
GRID*                118               07.6770133866E+00-3.639773639E-01+
*       1.0456046658E+00               0
GRID*                119               07.3645433119E+00-6.387886680E-01+
*       2.1381474241E+00               0
GRID*                120               06.8632569946E+00-5.286955374E-01+
*       1.0746452433E+00               0
GRID*                121               07.0055591617E+006.3138663852E-01+
*       1.0353305482E+00               0
GRID*                122               07.0963258697E+004.4842243143E-01+
*       9.8133386497E-01               0
GRID*                123               06.8405549566E+005.3848669619E-01+
*       7.7581240421E-01               0
GRID*                124               07.0181068038E+003.4107450865E-01+
*       7.4856689670E-01               0
GRID*                125               06.6363855342E+00-5.580796079E-01+
*       9.3135227787E-01               0
GRID*                126               06.7188117522E+00-7.660966506E-01+
*       7.1100161533E-01               0
GRID*                127               06.8394997010E+00-8.171357585E-01+
*       1.1506162132E+00               0
GRID*                128               06.2925204801E+00-3.976972059E-01+
*       9.1577180197E-01               0
GRID*                129               06.2623304600E+00-6.247149307E-01+
*       1.0977255223E+00               0
GRID*                130               06.4744018069E+00-7.907530190E-01+
*       1.1484860515E+00               0
GRID*                131               06.5824846129E+00-5.371453884E-01+
*       1.1857306457E+00               0
GRID*                132               06.3304989848E+00-7.503752212E-01+
*       8.1384717706E-01               0
GRID*                133               06.4098845008E+00-5.345012103E-01+
*       6.1259927909E-01               0
GRID*                134               07.4865893316E+005.8742141420E-01+
*       9.6926652983E-01               0
GRID*                135               07.3496787551E+007.1865728457E-01+
*       1.0616679560E+00               0
GRID*                136               07.3075030140E+006.3669188300E-01+
*       9.4683957709E-01               0
GRID*                137               07.4377213532E+004.7441832015E-01+
*       1.1311149377E+00               0
GRID*                138               07.3252166752E+004.1768298393E-01+
*       9.4720229232E-01               0
GRID*                139               07.4388339154E+007.7331806206E-01+
*       8.2572563862E-01               0
GRID*                140               07.6478198392E+008.1355110559E-01+
*       9.0393218566E-01               0
GRID*                141               07.2420293248E+001.9270791409E-01+
*       1.7551798709E+00               0
GRID*                142               07.2943627126E+003.4039500782E-01+
*       1.5453290181E+00               0
GRID*                143               07.5533038640E+003.0773991018E-01+
*       1.9232202172E+00               0
GRID*                144               07.7106247240E+002.3825784926E-01+
*       1.6497437166E+00               0
GRID*                145               07.1913148979E+009.2012087125E-02+
*       2.1394336795E+00               0
GRID*                146               07.1353595418E+00-1.260997037E-01+
*       2.1348686675E+00               0
GRID*                147               06.8525091172E+009.7064536311E-02+
*       1.9716211835E+00               0
GRID*                148               06.5843280545E+002.5460337686E-01+
*       4.9440703710E-01               0
GRID*                149               06.7802253362E+004.4812950073E-01+
*       4.3649370828E-01               0
GRID*                150               07.0868899289E+005.4715675653E-01+
*       5.4712389462E-01               0
GRID*                151               07.8947530147E+002.0926707470E-01+
*       1.3056688275E+00               0
GRID*                152               07.7304309289E+00-4.385414670E-02+
*       1.6216027210E+00               0
GRID*                153               07.8254020016E+004.5168817916E-01+
*       1.4292863709E+00               0
GRID*                154               07.7048121605E+003.8138826405E-01+
*       1.2081058650E+00               0
GRID*                155               07.6746862338E+004.5991395643E-01+
*       1.6516272633E+00               0
GRID*                156               06.8289723323E+00-5.200020728E-01+
*       5.3751689682E-01               0
GRID*                157               06.8106905197E+001.3135821822E-01+
*       2.7402015637E-01               0
GRID*                158               06.6794469096E+005.2776898838E-01+
*       9.8539135811E-01               0
GRID*                159               06.4259773128E+002.2109529064E-01+
*       7.6045189790E-01               0
GRID*                160               06.3457879195E+004.5801312601E-01+
*       8.8883201423E-01               0
GRID*                161               06.5109006394E+004.7541795692E-01+
*       6.7510518254E-01               0
GRID*                162               06.7972514066E+00-1.228786284E-01+
*       2.4217881295E-01               0
GRID*                163               06.5585100716E+00-2.008297581E-01+
*       5.0286322857E-01               0
GRID*                164               08.0811167698E+001.1243457019E-01+
*       1.7327118068E+00               0
GRID*                165               08.1844850414E+00-2.100490847E-01+
*       1.4810818374E+00               0
GRID*                166               08.2686550315E+001.6389644695E-01+
*       1.2235178239E+00               0
GRID*                167               08.0856953927E+005.5102775865E-01+
*       1.6995528369E+00               0
GRID*                168               07.6428440865E+00-2.792683229E-01+
*       1.3644335737E+00               0
GRID*                169               07.4685529530E+00-2.891211427E-01+
*       1.8152420722E+00               0
GRID*                170               07.8273011663E+00-2.325504983E-01+
*       1.9557124132E+00               0
GRID*                171               07.7840432719E+001.0629435039E-01+
*       1.9683630795E+00               0
GRID*                172               07.0939638511E+00-8.257851087E-01+
*       3.9119398215E-01               0
GRID*                173               07.4388154749E+00-7.748139714E-01+
*       3.2347389188E-01               0
GRID*                174               08.0297042222E+00-8.546981925E-02+
*       1.8034639610E+00               0
GRID*                175               07.4888458343E+005.2178296644E-01+
*       1.4376486853E+00               0
GRID*                176               07.0549709293E+00-2.496681110E-01+
*       1.8376372409E+00               0
GRID*                177               07.4789648941E+00-1.307347580E-01+
*       2.0407719791E+00               0
GRID*                178               07.3249285203E+004.6455569527E-01+
*       1.8036307722E+00               0
GRID*                179               07.6644251513E+00-5.920324823E-01+
*       1.2708710394E+00               0
GRID*                180               06.5078636811E+008.0316300414E-01+
*       8.6273717280E-01               0
GRID*                181               06.6388601425E+008.2355061994E-01+
*       1.0583291993E+00               0
GRID*                182               07.8265734719E+00-2.683562144E-01+
*       1.5715757338E+00               0
GRID*                183               07.7641969282E+00-5.006384346E-01+
*       1.4868996558E+00               0
GRID*                184               07.9752860476E+00-3.204571608E-01+
*       1.1690987985E+00               0
GRID*                185               07.0575730343E+005.1770235615E-01+
*       2.0193635162E+00               0
GRID*                186               06.5122333115E+004.9932200847E-01+
*       1.7174113784E+00               0
GRID*                187               06.9299590471E+004.6743002516E-01+
*       1.6476642891E+00               0
GRID*                188               06.7486424760E+004.8625157885E-01+
*       1.9852106142E+00               0
GRID*                189               07.2631562793E+00-1.176779861E+00+
*       1.1667272221E+00               0
GRID*                190               07.8767496110E+004.9719699636E-01+
*       1.8597099482E+00               0
GRID*                191               07.4884057262E+00-4.962856007E-01+
*       1.7586045697E+00               0
GRID*                192               07.8726794551E+008.1638684403E-01+
*       1.7499019248E+00               0
GRID*                193               07.7393593448E+00-2.760622441E-01+
*       6.0074169107E-01               0
GRID*                194               07.7854375414E+00-5.357871233E-01+
*       9.0380485965E-01               0
GRID*                195               08.1927440325E+00-4.933266223E-01+
*       7.7178162785E-01               0
GRID*                196               07.8585447863E+00-5.462347778E-01+
*       1.1505918855E+00               0
GRID*                197               07.7076943167E+00-5.106873319E-01+
*       6.8555430050E-01               0
GRID*                198               07.2406033748E+00-5.917781179E-01+
*       9.2655665037E-01               0
GRID*                199               07.3206082718E+00-5.986653459E-01+
*       1.0864823193E+00               0
GRID*                200               06.6350194709E+00-4.179600830E-01+
*       3.7602453170E-01               0
GRID*                201               07.6424084780E+004.6988120845E-01+
*       5.8721337714E-01               0
GRID*                202               07.7654880416E+007.9760425941E-01+
*       5.6268971219E-01               0
GRID*                203               07.7306958444E+00-4.938975563E-01+
*       1.7310900701E+00               0
GRID*                204               07.0837779924E+00-4.995809924E-01+
*       1.7711975537E+00               0
GRID*                205               07.5257387282E+00-6.762286274E-01+
*       1.5860621704E+00               0
GRID*                206               07.7216804978E+00-7.841988194E-01+
*       1.7087462946E+00               0
GRID*                207               07.5567974455E+00-8.334502476E-01+
*       1.4117759751E+00               0
GRID*                208               07.3451915147E+00-7.620625948E-01+
*       1.8520123713E+00               0
GRID*                209               07.3268301161E+00-8.448527034E-01+
*       1.5509033082E+00               0
GRID*                210               06.2808939556E+008.3509371929E-02+
*       1.3206203138E+00               0
GRID*                211               06.3364740921E+004.3114536168E-01+
*       1.2909258722E+00               0
GRID*                212               06.4272315864E+003.0242604839E-01+
*       1.5046282719E+00               0
GRID*                213               06.8830031608E+007.3248512597E-01+
*       2.8245339811E-01               0
GRID*                214               06.3623212753E+00-4.729870863E-01+
*       1.5005182185E+00               0
GRID*                215               07.7342496068E+006.3857552121E-01+
*       2.0088043625E+00               0
GRID*                216               08.2821716829E+00-1.639540440E-01+
*       1.1072683795E+00               0
GRID*                217               07.1444372085E+006.4489282195E-01+
*       1.4764320580E+00               0
GRID*                218               07.2811256869E+005.5895918772E-01+
*       1.2600932096E+00               0
GRID*                219               07.3857372051E+008.5299546986E-01+
*       1.1981462139E+00               0
GRID*                220               07.4696136914E+00-8.824069261E-01+
*       1.2003046776E+00               0
GRID*                221               07.0249701891E+00-7.850112410E-01+
*       6.1656385510E-01               0
GRID*                222               06.8447518149E+00-7.178155091E-01+
*       2.6398895070E-01               0
GRID*                223               08.0996752814E+00-7.569857457E-01+
*       1.0219293556E+00               0
GRID*                224               07.5058094593E+00-5.649981565E-01+
*       9.0083715911E-01               0
GRID*                225               07.5671360996E+00-6.542314858E-01+
*       1.0441237325E+00               0
GRID*                226               06.8763659643E+008.3362497783E-01+
*       1.0963734983E+00               0
GRID*                227               07.1617708492E+008.2407914146E-01+
*       1.1283387352E+00               0
GRID*                228               07.0798303040E+008.0299161083E-01+
*       9.1361450440E-01               0
GRID*                229               07.0701133370E+008.2777293368E-01+
*       1.2581212938E+00               0
GRID*                230               06.9317732539E+006.4571432290E-01+
*       1.2906409212E+00               0
GRID*                231               07.1795587443E+006.3626500405E-01+
*       1.0972049156E+00               0
GRID*                232               06.9184712179E+008.1740286288E-01+
*       7.6666583396E-01               0
GRID*                233               07.1427808332E+005.9158139227E-01+
*       8.4225778492E-01               0
GRID*                234               08.2161278675E+002.3189625891E-01+
*       1.4691355064E+00               0
GRID*                235               07.9349377122E+004.6690556763E-01+
*       1.1722337414E+00               0
GRID*                236               07.6103878200E+006.3446492162E-01+
*       1.0960086238E+00               0
GRID*                237               07.6816301760E+00-7.878509515E-01+
*       7.2292364832E-01               0
GRID*                238               08.0340075568E+00-7.596931539E-01+
*       4.7440923844E-01               0
GRID*                239               08.2276064750E+002.8741249052E-01+
*       8.9078659629E-01               0
GRID*                240               07.0409185438E+005.0039932740E-01+
*       1.7671150800E-01               0
GRID*                241               07.9867665542E+00-8.056202930E-01+
*       7.2153727228E-01               0
GRID*                242               08.1456251998E+004.9322402031E-01+
*       6.2626878985E-01               0
GRID*                243               07.9508751232E+007.9923093417E-01+
*       8.2123652854E-01               0
GRID*                244               07.5235155215E+008.8119776775E-01+
*       1.0389800099E+00               0
GRID*                245               06.9849883982E+008.5765152260E-01+
*       1.8821611255E+00               0
GRID*                246               07.0823142699E+007.7171285496E-01+
*       1.6516758139E+00               0
GRID*                247               07.3094921531E+008.1665726015E-01+
*       1.9880249214E+00               0
GRID*                248               07.6988051525E+007.6980316669E-01+
*       1.5467782071E+00               0
GRID*                249               08.0943163512E+006.1090999182E-01+
*       1.4665011372E+00               0
GRID*                250               07.0658628744E+00-8.454731046E-01+
*       1.0270137103E+00               0
GRID*                251               07.2092502738E+00-8.034018714E-01+
*       9.3325821328E-01               0
GRID*                252               07.3741742987E+00-8.425872617E-01+
*       1.0873039422E+00               0
GRID*                253               06.4482107586E+007.1114571423E-01+
*       6.1686668517E-01               0
GRID*                254               07.5107726616E+007.4453566042E-01+
*       3.7866920490E-01               0
GRID*                255               07.3899851952E+007.8965148361E-01+
*       5.9429720114E-01               0
GRID*                256               07.5113742613E+004.3697365062E-01+
*       1.8293766100E-01               0
GRID*                257               07.7845077148E+007.3604356625E-01+
*       3.1185284018E-01               0
GRID*                258               07.7654309074E+004.3309484272E-01+
*       3.2969522921E-01               0
GRID*                259               07.2915742268E+008.0559359785E-01+
*       1.5680123277E+00               0
GRID*                260               08.2636148272E+00-4.817349096E-01+
*       1.1832125138E+00               0
GRID*                261               07.6215542471E+009.9086558040E-02+
*       2.1545225572E-01               0
GRID*                262               07.0173662373E+00-7.655021965E-01+
*       1.6883095606E+00               0
GRID*                263               06.9863994878E+00-8.476927141E-01+
*       1.3956475906E+00               0
GRID*                264               06.3510116249E+00-7.970363100E-01+
*       1.4535379803E+00               0
GRID*                265               06.5700307360E+00-7.883286727E-01+
*       1.3747074251E+00               0
GRID*                266               06.4428293620E+00-7.218570870E-01+
*       1.6877450985E+00               0
GRID*                267               06.5731174668E+00-4.931005948E-01+
*       1.8415721765E+00               0
GRID*                268               06.7786689933E+00-7.338555651E-01+
*       1.7589291045E+00               0
GRID*                269               06.7766788131E+00-7.706146535E-01+
*       1.4088102274E+00               0
GRID*                270               07.2863284760E+00-3.887467552E-01+
*       2.0937149194E+00               0
GRID*                271               07.6086135814E+00-4.147071385E-01+
*       2.0857718296E+00               0
GRID*                272               06.9256498319E+00-5.139484636E-01+
*       2.0788738556E+00               0
GRID*                273               07.8492383415E+00-7.610401983E-01+
*       9.9783761739E-01               0
GRID*                274               07.1532626535E+001.0672938100E-01+
*       1.3717753806E-01               0
GRID*                275               07.2629142362E+005.0943214638E-01+
*       1.3591717920E-01               0
GRID*                276               07.3714055279E+00-7.867845888E-01+
*       9.2659740706E-01               0
GRID*                277               07.4863903462E+00-8.204429751E-01+
*       7.9360496444E-01               0
GRID*                278               07.8423568398E+008.3817724416E-01+
*       1.0981802907E+00               0
GRID*                279               07.9882071108E+00-4.685805081E-01+
*       1.7138915139E+00               0
GRID*                280               07.6706581484E+00-4.464288923E-01+
*       2.4580165377E-01               0
GRID*                281               07.8837995399E+00-7.285081783E-01+
*       1.8808168327E+00               0
GRID*                282               07.2102347846E+006.9795107198E-01+
*       1.2659059755E+00               0
GRID*                283               07.2898327345E+009.1899316179E-01+
*       1.1370824930E+00               0
GRID*                284               07.2944501688E+009.0442135894E-01+
*       9.6098991569E-01               0
GRID*                285               07.3865926055E+007.0437552442E-01+
*       1.3391378743E+00               0
GRID*                286               07.6308415160E+00-8.675975626E-01+
*       9.3473783592E-01               0
GRID*                287               06.5291943100E+00-7.634112230E-01+
*       4.7383192207E-01               0
GRID*                288               06.5859465822E+007.7648278534E-01+
*       1.5074483031E+00               0
GRID*                289               06.9345677274E+008.5122917850E-01+
*       1.4658774543E+00               0
GRID*                290               08.0564786909E+008.0211349374E-01+
*       5.5333165118E-01               0
GRID*                291               07.2909592676E+00-9.129817957E-01+
*       1.3088615989E+00               0
GRID*                292               08.0991909717E+00-6.421363310E-01+
*       1.4915794781E+00               0
GRID*                293               07.3316290189E+008.5500273859E-01+
*       3.6916573976E-01               0
GRID*                294               06.7092479038E+007.4605296152E-01+
*       5.3401943158E-01               0
GRID*                295               07.2211054574E+008.3487101718E-01+
*       7.0426661950E-01               0
GRID*                296               07.0669469887E+008.2480877370E-01+
*       4.5679150464E-01               0
GRID*                297               08.0805469441E+00-7.244817051E-01+
*       1.6781272984E+00               0
GRID*                298               06.4356110992E+008.1196446377E-01+
*       1.2892580016E+00               0
GRID*                299               07.5258149307E+008.5205562206E-01+
*       1.8359339943E+00               0
GRID*                300               07.6684251130E+008.2403626057E-01+
*       1.3001919073E+00               0
GRID*                301               07.8914032477E+00-5.117642390E-01+
*       3.6515702516E-01               0
GRID*                302               07.7473657683E+00-7.528117393E-01+
*       4.2966134435E-01               0
GRID*                303               07.5050681170E+008.4636953472E-01+
*       1.5402112641E+00               0
GRID*                304               07.3401891997E+004.9336991387E-01+
*       2.0992228666E+00               0
GRID*                305               07.2652379451E+009.0159420517E-01+
*       1.3410373206E+00               0
GRID*                306               06.8201214408E+007.5463354483E-01+
*       1.6342664193E+00               0
GRID*                307               06.7397704854E+008.1988549777E-01+
*       1.3751536671E+00               0
GRID*                308               07.4742800777E+008.6826867385E-01+
*       1.2720578436E+00               0
GRID*                309               08.1770537199E+008.1379701929E-01+
*       1.2065467363E+00               0
GRID*                310               07.8693192907E+008.1944064754E-01+
*       1.3902865091E+00               0
GRID*                311               06.9643642974E+00-7.648477229E-01+
*       1.9293215896E+00               0
GRID*                312               06.2607473934E+006.2463795744E-01+
*       1.1057900191E+00               0
GRID*                313               07.2740708261E+001.0833241721E+00+
*       1.1383998210E+00               0
GRID*                314               06.5513076582E+007.5653266159E-01+
*       1.8016921843E+00               0
GRID*                315               07.2734086205E+001.2261861445E+00+
*       1.1370495008E+00               0
GRID*                793               07.1496553421E+00-1.000000000E+00+
*       1.1663556099E+00               0
GRID*                794               07.1496553421E+00-1.500000000E+00+
*       1.1663556099E+00               0
GRID*                791               08.4355258942E+00-1.000000000E+00+
*       1.4211821556E+00               0
GRID*                792               08.4355258942E+001.0000000000E+00+
*       1.4211821556E+00               0
GRID*                789               07.3911366463E+001.0000000000E+00+
*       1.1663556099E+00               0
GRID*                790               07.3911366463E+001.5000000000E+00+
*       1.1663556099E+00               0
GRID*                700               07.3911366463E+001.1666666667E+00+
*       1.1663556099E+00               0
GRID*                701               07.3911366463E+001.3333333333E+00+
*       1.1663556099E+00               0
GRID*                702               08.4355258942E+00-7.500000000E-01+
*       1.4211821556E+00               0
GRID*                703               08.4355258942E+00-5.000000000E-01+
*       1.4211821556E+00               0
GRID*                704               08.4355258942E+00-2.500000000E-01+
*       1.4211821556E+00               0
GRID*                705               08.4355258942E+000.0000000000E+00+
*       1.4211821556E+00               0
GRID*                706               08.4355258942E+002.5000000000E-01+
*       1.4211821556E+00               0
GRID*                707               08.4355258942E+005.0000000000E-01+
*       1.4211821556E+00               0
GRID*                708               08.4355258942E+007.5000000000E-01+
*       1.4211821556E+00               0
GRID*                709               07.1496553421E+00-1.166666667E+00+
*       1.1663556099E+00               0
GRID*                710               07.1496553421E+00-1.333333333E+00+
*       1.1663556099E+00               0
$*
$* ELEMENT CARDS
$*
$*  NX mesh: 3d_mesh(1)
CTETRA         1       1       1       2     601     630
CTETRA         2       1       2       3       4       5
CTETRA         3       1       2     602       4       6
CTETRA         4       1       7       8       9      10
CTETRA         5       1       7      11      12      13
CTETRA         6       1       7      14      15      16
CTETRA         7       1       7      17      12      11
CTETRA         8       1       7      13      18      15
CTETRA         9       1       7      19       8      16
CTETRA        10       1      20      21      22      23
CTETRA        11       1      20      24      25      18
CTETRA        12       1      20      18      26      22
CTETRA        13       1      20      27      18      25
CTETRA        14       1      28      29      30      31
CTETRA        15       1      31      30      16      32
CTETRA        16       1     325      33      34     319
CTETRA        17       1     319     320     325      33
CTETRA        18       1      31      35      36      37
CTETRA        19       1      38     331     332     346
CTETRA        20       1      31      36      39      40
CTETRA        21       1      31      41      42      43
CTETRA        22       1      31      36      16      28
CTETRA        23       1      44      45      46      47
CTETRA        24       1      48      46      49      45
CTETRA        25       1      50      51      52      53
CTETRA        26       1      44      54      55      56
CTETRA        27       1      44      57      58      46
CTETRA        28       1      44      58      57      56
CTETRA        29       1      49      46      57      44
CTETRA        30       1      59      46      57      49
CTETRA        31       1      54      30      55      29
CTETRA        32       1      44      58      55      60
CTETRA        33       1      44      55      61      60
CTETRA        34       1      61      54      30      55
CTETRA        35       1      54      62      63      64
CTETRA        36       1      44      56      55      58
CTETRA        37       1      54      63      65      66
CTETRA        38       1      54      64      63      66
CTETRA        39       1      67      56      66      68
CTETRA        40       1      56      66      68      54
CTETRA        41       1      69      70      71      27
CTETRA        42       1      69      27      71      72
CTETRA        43       1      69      71      73      72
CTETRA        44       1      69      63      51      32
CTETRA        45       1      69      74      63      32
CTETRA        46       1      69      75      73      74
CTETRA        47       1      76      77      57      78
CTETRA        48       1      57      76      56      79
CTETRA        49       1      77      78      76      80
CTETRA        50       1      77      76      79      81
CTETRA        51       1      77     620      57      78
CTETRA        52       1      82      83      84      85
CTETRA        53       1      82      86      45      87
CTETRA        54       1      82      87      88      86
CTETRA        55       1      82      83      85      89
CTETRA        56       1      82      61      87      45
CTETRA        57       1      20      24      90      91
CTETRA        58       1      92     515     514     544
CTETRA        59       1      90      62      91      24
CTETRA        60       1      90      93      62      61
CTETRA        61       1     508     766     426     424
CTETRA        62       1      90      94      95      61
CTETRA        63       1      90      95      96      97
CTETRA        64       1      90      93      97      62
CTETRA        65       1      83      98      93      99
CTETRA        66       1     100      49     101      83
CTETRA        67       1      82      83      93      49
CTETRA        68       1      83     102     101      85
CTETRA        69       1      71      73     103     104
CTETRA        70       1     103      71     105     106
CTETRA        71       1     106     103     107     105
CTETRA        72       1      69      51     104     105
CTETRA        73       1      69     104      71     105
CTETRA        74       1     108      42     109       1
CTETRA        75       1      27       3     108       5
CTETRA        76       1      27     108      70       5
CTETRA        77       1     108       3      27      18
CTETRA        78       1       2       8     108      40
CTETRA        79       1     108       3      16       8
CTETRA        80       1     629       1     600     630
CTETRA        81       1     108      16      25      42
CTETRA        82       1     383     110     111     112
CTETRA        83       1     113     114     498     115
CTETRA        84       1      55      29      37     116
CTETRA        85       1     117     393     381     380
CTETRA        86       1      55      28      29      30
CTETRA        87       1      54      55      56     116
CTETRA        88       1      93      99     118      68
CTETRA        89       1      82      93      89      95
CTETRA        90       1      82      61      45      49
CTETRA        91       1      93      68      61      49
CTETRA        92       1      93      62     118      97
CTETRA        93       1      54      55     116      29
CTETRA        94       1      29      63      30      32
CTETRA        95       1     117     695     119     395
CTETRA        96       1      31      41      29      42
CTETRA        97       1      29      63      51      65
CTETRA        98       1      29      42      32      31
CTETRA        99       1      29     120      65      51
CTETRA       100       1      29      65     120      41
CTETRA       101       1      14      16       8      36
CTETRA       102       1      14     121     122     123
CTETRA       103       1      14     123     124      36
CTETRA       104       1      14     124      60      28
CTETRA       105       1      14      28      60      15
CTETRA       106       1      14      28      15      16
CTETRA       107       1     120     125     126     127
CTETRA       108       1     125      41     128      42
CTETRA       109       1     125     129     130     131
CTETRA       110       1     125     132     128     133
CTETRA       111       1     125     129     132     130
CTETRA       112       1     125      41     126     133
CTETRA       113       1     134     135     136     137
CTETRA       114       1     134     138      87     137
CTETRA       115       1     134      45      87     138
CTETRA       116       1     134      86      47     139
CTETRA       117       1     134      86     139     140
CTETRA       118       1     141      96      22     142
CTETRA       119       1     141     143     144     142
CTETRA       120       1     141      23     143     145
CTETRA       121       1      26     141     145      23
CTETRA       122       1     145      26     146     147
CTETRA       123       1     141      26     142      22
CTETRA       124       1     124      60     138     122
CTETRA       125       1     124     138      60      47
CTETRA       126       1     124     148     123     149
CTETRA       127       1     124     149     123     150
CTETRA       128       1     124      60      58      47
CTETRA       129       1      96      97     151     152
CTETRA       130       1      96     153     151     154
CTETRA       131       1      96     144     153     155
CTETRA       132       1      90      96      94      22
CTETRA       133       1      96     154      95     137
CTETRA       134       1      96      22      13      94
CTETRA       135       1      96      13      22     142
CTETRA       136       1      96      95      13     137
CTETRA       137       1     116      81      76     156
CTETRA       138       1      44      49      61      68
CTETRA       139       1      58      37     116      55
CTETRA       140       1     116     157      58      79
CTETRA       141       1      65      56     116      54
CTETRA       142       1      36     148      37      35
CTETRA       143       1      14      36      10     158
CTETRA       144       1      36      40       8      39
CTETRA       145       1      31     159      43      39
CTETRA       146       1      36      14      10       8
CTETRA       147       1       7      17      14      10
CTETRA       148       1      36     160     159      39
CTETRA       149       1      36     160     161     159
CTETRA       150       1      36     148     159     161
CTETRA       151       1     159      35     596     148
CTETRA       152       1     148     149     538     161
CTETRA       153       1     148     159     567     596
CTETRA       154       1     148     537     149     566
CTETRA       155       1     148      35     596     595
CTETRA       156       1      37     162     163      35
CTETRA       157       1     148      37     157      58
CTETRA       158       1     151     164     144     152
CTETRA       159       1     151     144     164     153
CTETRA       160       1      96     151     144     152
CTETRA       161       1     151     152      97     165
CTETRA       162       1     151      89     166      98
CTETRA       163       1     151     165      97      98
CTETRA       164       1     151     154      89      95
CTETRA       165       1      26      22      18     142
CTETRA       166       1      23      26     146     145
CTETRA       167       1      26      19       3     147
CTETRA       168       1      20      22      26      23
CTETRA       169       1     144     141      23     143
CTETRA       170       1     152     144      96      23
CTETRA       171       1     141      23      22      96
CTETRA       172       1     164     151     165     152
CTETRA       173       1     144     153     155     167
CTETRA       174       1      22      90      96     168
CTETRA       175       1     152      23     169     170
CTETRA       176       1     144     152     171      23
CTETRA       177       1      96      95     151      97
CTETRA       178       1      97     168     152      96
CTETRA       179       1      38     172      67     173
CTETRA       180       1     152     165     164     174
CTETRA       181       1     152     170     174     171
CTETRA       182       1      20      94      90      24
CTETRA       183       1      20      21      27      75
CTETRA       184       1     168      90      96      97
CTETRA       185       1      90      91      97     168
CTETRA       186       1     144      23     171     143
CTETRA       187       1     144     142      96     141
CTETRA       188       1     141      26      22      23
CTETRA       189       1      22      13      94      18
CTETRA       190       1      96     142     175      13
CTETRA       191       1     141      26      19     142
CTETRA       192       1      26     176      23     146
CTETRA       193       1      23     177     145     146
CTETRA       194       1     141     143     142     178
CTETRA       195       1     141     145     143     178
CTETRA       196       1      21      73      75      91
CTETRA       197       1      91     168     179     118
CTETRA       198       1      96     168     152      22
CTETRA       199       1      91     168     118      97
CTETRA       200       1      91      62     118      64
CTETRA       201       1      20      91     168      21
CTETRA       202       1     180     123     181     158
CTETRA       203       1     152      21     168     182
CTETRA       204       1     183      21     182     168
CTETRA       205       1     321      34     710      33
CTETRA       206       1     168      97     182     184
CTETRA       207       1     141     185     147     145
CTETRA       208       1       7      19       9       8
CTETRA       209       1      19       3       6       8
CTETRA       210       1      19       9     186     187
CTETRA       211       1      19     188     187     186
CTETRA       212       1      19     188     185     187
CTETRA       213       1       2       3       8       6
CTETRA       214       1     147     141     145      26
CTETRA       215       1      19       8       6       9
CTETRA       216       1     141     178     187     185
CTETRA       217       1      26     176       3      27
CTETRA       218       1       3       5     176       4
CTETRA       219       1      24      18      30      25
CTETRA       220       1      24      25      30      32
CTETRA       221       1      20      24      18      94
CTETRA       222       1      24      63      32      30
CTETRA       223       1     321      33     189     322
CTETRA       224       1      62      94      30      24
CTETRA       225       1      24      62      74      63
CTETRA       226       1     117     695     395     745
CTETRA       227       1     380     696     746     390
CTETRA       228       1      61      62      94      30
CTETRA       229       1      90      94      61      62
CTETRA       230       1      90      24      94      62
CTETRA       231       1     144     167     155     190
CTETRA       232       1      20      75      91      21
CTETRA       233       1      82      87      61      95
CTETRA       234       1      94      15      61      30
CTETRA       235       1      62      61      54      30
CTETRA       236       1     191      21      27     169
CTETRA       237       1      54      61      62      68
CTETRA       238       1      93      62      61      68
CTETRA       239       1     192     468     466     470
CTETRA       240       1      90      93      61      95
CTETRA       241       1      58      44      47      60
CTETRA       242       1      44      61      49      45
CTETRA       243       1      62     118      64      68
CTETRA       244       1      54      62      64      68
CTETRA       245       1      94      15      18      13
CTETRA       246       1      61      87     137      95
CTETRA       247       1      83      93     193      99
CTETRA       248       1      21     183      73     168
CTETRA       249       1      99     118     184      97
CTETRA       250       1      99     194     195     196
CTETRA       251       1      99     118      68     197
CTETRA       252       1      99     196     118     194
CTETRA       253       1      99     194     197     195
CTETRA       254       1      54      63      29      65
CTETRA       255       1      54      65      29     116
CTETRA       256       1      54      66      65      56
CTETRA       257       1      63      65      66     198
CTETRA       258       1      63     198      64     199
CTETRA       259       1      69      51      63     104
CTETRA       260       1      63     199     104     198
CTETRA       261       1     116     200      81     156
CTETRA       262       1      88     201     202      84
CTETRA       263       1     116      76      79      56
CTETRA       264       1      53      56      76      65
CTETRA       265       1     165     705     612     704
CTETRA       266       1     203     183      21     182
CTETRA       267       1      21     203     169     191
CTETRA       268       1      72      21      27     191
CTETRA       269       1     169     191     204      27
CTETRA       270       1      20      23      27      21
CTETRA       271       1     152      23     170     171
CTETRA       272       1     205     203     206     183
CTETRA       273       1     205     203      21     191
CTETRA       274       1     205     112     183     206
CTETRA       275       1     205     112     179     183
CTETRA       276       1     205     207     103      73
CTETRA       277       1     114     498     497     527
CTETRA       278       1     117     206     208     191
CTETRA       279       1     205     393     208     209
CTETRA       280       1     205     392     206     393
CTETRA       281       1     205     206     392     207
CTETRA       282       1     498     482     497     755
CTETRA       283       1       8     210     211      39
CTETRA       284       1       2     212       8     210
CTETRA       285       1       8     212     211     210
CTETRA       286       1     113     528     498     527
CTETRA       287       1      36      16       8      40
CTETRA       288       1       8      14      10       7
CTETRA       289       1      91      62      97     118
CTETRA       290       1      82      61      93      95
CTETRA       291       1       3      27     176       5
CTETRA       292       1      12      19       9       7
CTETRA       293       1      18      15      30      16
CTETRA       294       1       7      18      16      15
CTETRA       295       1      20     168      90      22
CTETRA       296       1     108      18      25      16
CTETRA       297       1      23      27      21     169
CTETRA       298       1      69      32      25      75
CTETRA       299       1     206     381     392     382
CTETRA       300       1     213     506     401     505
CTETRA       301       1     108      42      70     109
CTETRA       302       1      20      25      24      75
CTETRA       303       1      25      42      32     120
CTETRA       304       1       2       1     109     214
CTETRA       305       1     108      42      40      16
CTETRA       306       1      18      25      16      30
CTETRA       307       1     134      87      45      86
CTETRA       308       1      13      61      15     137
CTETRA       309       1     500     757     758     483
CTETRA       310       1      23     177     143     145
CTETRA       311       1     177     145     578     143
CTETRA       312       1     143     171     580     579
CTETRA       313       1      90      97      91      62
CTETRA       314       1     152      21      22     168
CTETRA       315       1     142     143     144     155
CTETRA       316       1     143     177     608     578
CTETRA       317       1     178     155     215     143
CTETRA       318       1     216     584     613     614
CTETRA       319       1     217     175     178     142
CTETRA       320       1     142     217     175     218
CTETRA       321       1     142     217      12     187
CTETRA       322       1     141      26     147      19
CTETRA       323       1     141      19     147     185
CTETRA       324       1     679     729     678     353
CTETRA       325       1     142     218     175      13
CTETRA       326       1     135     218     137     219
CTETRA       327       1     220     376     370     713
CTETRA       328       1      23     144      96     141
CTETRA       329       1     172      67     173      76
CTETRA       330       1     111     369     368     383
CTETRA       331       1      76     172      53     221
CTETRA       332       1      79      77      57      76
CTETRA       333       1     116      79      76      81
CTETRA       334       1      77      76      81      80
CTETRA       335       1      76      81     222     156
CTETRA       336       1      76      80      78     173
CTETRA       337       1      76     222      81      80
CTETRA       338       1     168     118      97     184
CTETRA       339       1     223     367     371     373
CTETRA       340       1     118     197     194     224
CTETRA       341       1     168     183     179     196
CTETRA       342       1     118     179     225     196
CTETRA       343       1      93     118      62      68
CTETRA       344       1     121     226     227     228
CTETRA       345       1     121     229     230     231
CTETRA       346       1     121     158     230     226
CTETRA       347       1     228     121     232     233
CTETRA       348       1     121     232     123     226
CTETRA       349       1     121     232     233     123
CTETRA       350       1     121     123     158     226
CTETRA       351       1     151      95      89      98
CTETRA       352       1     234     153     235     151
CTETRA       353       1     190     144     143     155
CTETRA       354       1     154      89      87     235
CTETRA       355       1     154     235      87     236
CTETRA       356       1      67     197     224     237
CTETRA       357       1      96     144     151     153
CTETRA       358       1      20      22      90      94
CTETRA       359       1      91     225     118     179
CTETRA       360       1      97      98     165     184
CTETRA       361       1      20      23      26      27
CTETRA       362       1     152      23      22      21
CTETRA       363       1     134     137     136     138
CTETRA       364       1     154      95      87      89
CTETRA       365       1     236      88     235      87
CTETRA       366       1     238     725     724     372
CTETRA       367       1     232     417     418     419
CTETRA       368       1     154     153     236     175
CTETRA       369       1     154      87      95     137
CTETRA       370       1     205      21     183      73
CTETRA       371       1      93      99      98      97
CTETRA       372       1     234     235     166     151
CTETRA       373       1       3      27      18      26
CTETRA       374       1      26      19     142      18
CTETRA       375       1      93      95      98      89
CTETRA       376       1      20      22      94      18
CTETRA       377       1      96     155     153     175
CTETRA       378       1      96     154     137     175
CTETRA       379       1      83      99     102      98
CTETRA       380       1      99      98     184     102
CTETRA       381       1      85      89      98     239
CTETRA       382       1     151      89     154     235
CTETRA       383       1      82      93      83      89
CTETRA       384       1      98      85     102      83
CTETRA       385       1     240     564     535     534
CTETRA       386       1     239      85     102      98
CTETRA       387       1     151     166     165      98
CTETRA       388       1     195     223     241     673
CTETRA       389       1      89     166     239     114
CTETRA       390       1      85     239     242      88
CTETRA       391       1     114      89      88     239
CTETRA       392       1      83      89      93      98
CTETRA       393       1      93     193      99      68
CTETRA       394       1      98     216     165     184
CTETRA       395       1      83     100      84      85
CTETRA       396       1      98     102     216     184
CTETRA       397       1     137      61      15     138
CTETRA       398       1      82      45     201      48
CTETRA       399       1      61      87      45     138
CTETRA       400       1     107     713     793     715
CTETRA       401       1     134     139      47     136
CTETRA       402       1     202     139      47      86
CTETRA       403       1     202      88     243      86
CTETRA       404       1     244     134     135     139
CTETRA       405       1     179      73     220     207
CTETRA       406       1      21      73     205      72
CTETRA       407       1      90      97      93      95
CTETRA       408       1     225      64     199      73
CTETRA       409       1      73     225      91     179
CTETRA       410       1      64      91      73     225
CTETRA       411       1     179     220     225     111
CTETRA       412       1     111     196     225     179
CTETRA       413       1     245     246     442     247
CTETRA       414       1     205     183     179      73
CTETRA       415       1     152      97     165     182
CTETRA       416       1     153     155     192     248
CTETRA       417       1     153     164     234     167
CTETRA       418       1     153     155     167     192
CTETRA       419       1     249     234     153     235
CTETRA       420       1     125     127     131     130
CTETRA       421       1     125     120      41      42
CTETRA       422       1      41      37      35      31
CTETRA       423       1     125      42     131     120
CTETRA       424       1      29     116      41      37
CTETRA       425       1     234     705     583     612
CTETRA       426       1     116      65      41     156
CTETRA       427       1      41     200     116     156
CTETRA       428       1      41     156     133     200
CTETRA       429       1      42      41      29     120
CTETRA       430       1     250     362     715     337
CTETRA       431       1      65     126      41     156
CTETRA       432       1      42     109     131      70
CTETRA       433       1      31      29      41      37
CTETRA       434       1     108      42       1      40
CTETRA       435       1      42       1      43     128
CTETRA       436       1      61     138      45      60
CTETRA       437       1      29      30      31      32
CTETRA       438       1      25      30      32      16
CTETRA       439       1      31      16      30      28
CTETRA       440       1      35      41      43     163
CTETRA       441       1      69     104      63      74
CTETRA       442       1     241     378     372     371
CTETRA       443       1     108      40       8      16
CTETRA       444       1      24      25      32      75
CTETRA       445       1      69      71      70     105
CTETRA       446       1      30      28      16      15
CTETRA       447       1      31      36      28      37
CTETRA       448       1      14      36      28      16
CTETRA       449       1      55     124      28      60
CTETRA       450       1       7      15      14      17
CTETRA       451       1      31      29      37      28
CTETRA       452       1      76      65      56     116
CTETRA       453       1      55     124      37      28
CTETRA       454       1      61      30      15      60
CTETRA       455       1      41      43     163     128
CTETRA       456       1      41     128     163     133
CTETRA       457       1     163      41     200     116
CTETRA       458       1     124      28      36      37
CTETRA       459       1      14      15      60     122
CTETRA       460       1      14      60     124     122
CTETRA       461       1      37      58     124      55
CTETRA       462       1      19     187     142      12
CTETRA       463       1      18     142      13      12
CTETRA       464       1       7      16       8      14
CTETRA       465       1      65     156     221     126
CTETRA       466       1      29      51      32     120
CTETRA       467       1      51     127     250     105
CTETRA       468       1      51     251     104     250
CTETRA       469       1     250      52      51     251
CTETRA       470       1      51      50     250     127
CTETRA       471       1      69      32      51     120
CTETRA       472       1      69      32      75      74
CTETRA       473       1     252     376     713     333
CTETRA       474       1      51     250     104     105
CTETRA       475       1      31      43      42      40
CTETRA       476       1      35     626      43     597
CTETRA       477       1      36     148      35     159
CTETRA       478       1     123     180     161     158
CTETRA       479       1     123     161     253     149
CTETRA       480       1     254     202     255      47
CTETRA       481       1     201      46      47     256
CTETRA       482       1     201      48      46     256
CTETRA       483       1     201     257     258     254
CTETRA       484       1      84      88     243     202
CTETRA       485       1     201      84     257     202
CTETRA       486       1     212       9      92     186
CTETRA       487       1      10     212       9      92
CTETRA       488       1     212     543      92     211
CTETRA       489       1      19      18      12     142
CTETRA       490       1     212       6     186     573
CTETRA       491       1       2     212     601       6
CTETRA       492       1     212     210     601     572
CTETRA       493       1     571     211     572     210
CTETRA       494       1     113     528     499     498
CTETRA       495       1     154     175     236     137
CTETRA       496       1     259     217     175     178
CTETRA       497       1       2       4       3       6
CTETRA       498       1      96     175     142     155
CTETRA       499       1     142      13      12     218
CTETRA       500       1      83      93      49     193
CTETRA       501       1      99     102     195     193
CTETRA       502       1     102     586     239     585
CTETRA       503       1     102     184     195     260
CTETRA       504       1     102     239     216     585
CTETRA       505       1     102     260     195     614
CTETRA       506       1     499     757     500     483
CTETRA       507       1     558     100      84     559
CTETRA       508       1      83     101     100      85
CTETRA       509       1      83      89      98      85
CTETRA       510       1     100     587      85     101
CTETRA       511       1     100     261     589     101
CTETRA       512       1     204      71     209     262
CTETRA       513       1      71     105     106     263
CTETRA       514       1     227     416     430     752
CTETRA       515       1     140     448     478     476
CTETRA       516       1     103      73     207     220
CTETRA       517       1     103      73     220     252
CTETRA       518       1     103     107     104     252
CTETRA       519       1     205     209     103     207
CTETRA       520       1     104      71     105     103
CTETRA       521       1     264     265     214     266
CTETRA       522       1     266     267     268     109
CTETRA       523       1      25      42     120      70
CTETRA       524       1      31      42      32      16
CTETRA       525       1       2       6     601     602
CTETRA       526       1     109     631     214     267
CTETRA       527       1     210       2     601       1
CTETRA       528       1     111     399     369     383
CTETRA       529       1     109      70     269     131
CTETRA       530       1      36     123     148     161
CTETRA       531       1      14     122     121      17
CTETRA       532       1      14     123      36     158
CTETRA       533       1      14     122      17      15
CTETRA       534       1      55      30      61      60
CTETRA       535       1      31      16      36      40
CTETRA       536       1      31      39      36     159
CTETRA       537       1     595      35     162     157
CTETRA       538       1      43     627     598     597
CTETRA       539       1      29      51      63      32
CTETRA       540       1      31      35      43     159
CTETRA       541       1      36     123     161     158
CTETRA       542       1     232     181     123     226
CTETRA       543       1      44      54      68      61
CTETRA       544       1      62      74      63      64
CTETRA       545       1      58      79      57      56
CTETRA       546       1      44      49      56      57
CTETRA       547       1      49      68      44      56
CTETRA       548       1     191     270     119     271
CTETRA       549       1     270     204     272     176
CTETRA       550       1     672     723     722     373
CTETRA       551       1     270     176     146     177
CTETRA       552       1     270     169     204     176
CTETRA       553       1     237     225     273     194
CTETRA       554       1     615     102     616     645
CTETRA       555       1     118     194     196     225
CTETRA       556       1     195     273     223     196
CTETRA       557       1     196     194     195     273
CTETRA       558       1     194     241     197     195
CTETRA       559       1      43     598     627     628
CTETRA       560       1     194     197     241     237
CTETRA       561       1      46     261      59     591
CTETRA       562       1      79     157     274     593
CTETRA       563       1      79     274      57     592
CTETRA       564       1      79      57     621     592
CTETRA       565       1     116      76      65     156
CTETRA       566       1     116      79      81     162
CTETRA       567       1     162      81     622      79
CTETRA       568       1     114     526     708     707
CTETRA       569       1      81      77     621      79
CTETRA       570       1      81     222     200     652
CTETRA       571       1      81     200     623     652
CTETRA       572       1     476     243     480     475
CTETRA       573       1      81     162     623     200
CTETRA       574       1     261      49     101     100
CTETRA       575       1     261      49      59     101
CTETRA       576       1      49      48     100     261
CTETRA       577       1     100     558      85     587
CTETRA       578       1      58     274     240     275
CTETRA       579       1     100     560     261     258
CTETRA       580       1     261      48     258     256
CTETRA       581       1     261      59     591     590
CTETRA       582       1      53     198     276      66
CTETRA       583       1     276     277      38      53
CTETRA       584       1     278     475     478     463
CTETRA       585       1      65     221      76      53
CTETRA       586       1     221      76     222     156
CTETRA       587       1     225     276     252     199
CTETRA       588       1     115     484     480     482
CTETRA       589       1      85     557     587     558
CTETRA       590       1     101     587     616     617
CTETRA       591       1     165     260     184     216
CTETRA       592       1     234     164     151     165
CTETRA       593       1     165     174     182     279
CTETRA       594       1     170     609     177     638
CTETRA       595       1     170     279     203     182
CTETRA       596       1     152     174     170     182
CTETRA       597       1     170     271     177     169
CTETRA       598       1      56      67      78     280
CTETRA       599       1      77     649      78     650
CTETRA       600       1      41     128      42      43
CTETRA       601       1     116     163      37     162
CTETRA       602       1      77      79      57     621
CTETRA       603       1      67      56      76      53
CTETRA       604       1      53     277      38      67
CTETRA       605       1      30      62      63      54
CTETRA       606       1      57      49      56      59
CTETRA       607       1     151     153     164     234
CTETRA       608       1      61      60      15     138
CTETRA       609       1     499     757     484     756
CTETRA       610       1      58      46      57     274
CTETRA       611       1      44      54      61      55
CTETRA       612       1      20      22      21     168
CTETRA       613       1      46      49     261      48
CTETRA       614       1     173      38     331     277
CTETRA       615       1      56     193      68      67
CTETRA       616       1      23     170     171     177
CTETRA       617       1     170     203     281     271
CTETRA       618       1     203     183     279     206
CTETRA       619       1      21     169     203     182
CTETRA       620       1     111     370     369     399
CTETRA       621       1      98     166     165     216
CTETRA       622       1      96     175     137      13
CTETRA       623       1     152      23      21     169
CTETRA       624       1     153     234     249     167
CTETRA       625       1     144     153     167     164
CTETRA       626       1      46     274     275     562
CTETRA       627       1      56     280      78      59
CTETRA       628       1     137     135     231     218
CTETRA       629       1     137     219     236     135
CTETRA       630       1     134      45      47      86
CTETRA       631       1     139     140     244     134
CTETRA       632       1     135     282     231     218
CTETRA       633       1      50      52     362     363
CTETRA       634       1     135     282     219     227
CTETRA       635       1     135     227     219     283
CTETRA       636       1     135     284     227     283
CTETRA       637       1     135     284     139     136
CTETRA       638       1     167     525     524     554
CTETRA       639       1      69      72      73      75
CTETRA       640       1      69      25      27      75
CTETRA       641       1     262     209     106      71
CTETRA       642       1      21      75      72      27
CTETRA       643       1     269     343     345     339
CTETRA       644       1     204     191     208      72
CTETRA       645       1      96     153     154     175
CTETRA       646       1      20      90     168      91
CTETRA       647       1     125      41      65     126
CTETRA       648       1      91      73      75      74
CTETRA       649       1      69      72      75      27
CTETRA       650       1      21     205     191      72
CTETRA       651       1      22      18     142      13
CTETRA       652       1      20      25      75      27
CTETRA       653       1      27       5      70     204
CTETRA       654       1     107     715     337     250
CTETRA       655       1     793     107     715     337
CTETRA       656       1     216     584     705     613
CTETRA       657       1     250     104     105     107
CTETRA       658       1     250     364      50     362
CTETRA       659       1     250     715     251     107
CTETRA       660       1     223     671     387     367
CTETRA       661       1      50     362      52     250
CTETRA       662       1     362      52     250     251
CTETRA       663       1      83      84     100      48
CTETRA       664       1      85      84      88     242
CTETRA       665       1      82      89      85      88
CTETRA       666       1     100     258      84     559
CTETRA       667       1     175     236     137     285
CTETRA       668       1      82      45      48      49
CTETRA       669       1      96     154     151      95
CTETRA       670       1     143     171     190     580
CTETRA       671       1     154     236     153     235
CTETRA       672       1     167     192     249     153
CTETRA       673       1     234     707     249     554
CTETRA       674       1     225     276     286     252
CTETRA       675       1       5     204     268      70
CTETRA       676       1       3     147       4     176
CTETRA       677       1       2       5       4     631
CTETRA       678       1       5       4     272     176
CTETRA       679       1     108      25      70      42
CTETRA       680       1     631       5     109       2
CTETRA       681       1       2     108     109       1
CTETRA       682       1       5       4     631     267
CTETRA       683       1      42     131     109       1
CTETRA       684       1     108       5     109      70
CTETRA       685       1      24      32      63      74
CTETRA       686       1      58      57      79     274
CTETRA       687       1      79     593     162     157
CTETRA       688       1     274      57     592     591
CTETRA       689       1     274     157     564     593
CTETRA       690       1      58     275     240     150
CTETRA       691       1     274     157     240     564
CTETRA       692       1     163      37      35      41
CTETRA       693       1     156     287     126     133
CTETRA       694       1     222     287     126     156
CTETRA       695       1      51      53      50      65
CTETRA       696       1     288     428     432     433
CTETRA       697       1      65     198      53      66
CTETRA       698       1     229     289     412     429
CTETRA       699       1     229     751     227     430
CTETRA       700       1     229     282     217     230
CTETRA       701       1     229     231     282     230
CTETRA       702       1     229     226     416     227
CTETRA       703       1     121     230     229     226
CTETRA       704       1     129     131     128       1
CTETRA       705       1     129     687     334     264
CTETRA       706       1     130     131     214     265
CTETRA       707       1     129     131     214     130
CTETRA       708       1     129     128     656     657
CTETRA       709       1      82      85      84      88
CTETRA       710       1      84     242     558     529
CTETRA       711       1      84     257     202     290
CTETRA       712       1     266     341     339     342
CTETRA       713       1     501     530     290     257
CTETRA       714       1      84     243      88     242
CTETRA       715       1     283     284     753     754
CTETRA       716       1     500      84     529     242
CTETRA       717       1     142     218      12     217
CTETRA       718       1      12      11     218      13
CTETRA       719       1      12       9     230      17
CTETRA       720       1      19       3       8      16
CTETRA       721       1      71     262      70     263
CTETRA       722       1     106     262     263     328
CTETRA       723       1     106     263     329     328
CTETRA       724       1     106     291     397     711
CTETRA       725       1      71     103     209     106
CTETRA       726       1     106     291     711     107
CTETRA       727       1     105     103     107     104
CTETRA       728       1      71     209     103      72
CTETRA       729       1     184     196     195     260
CTETRA       730       1      54      29      63      30
CTETRA       731       1     184     196     260     292
CTETRA       732       1     184     196     292     183
CTETRA       733       1     168     196     184     183
CTETRA       734       1     275     256     533     254
CTETRA       735       1     275     533     256     562
CTETRA       736       1     275     505     240     293
CTETRA       737       1     275      47     256     254
CTETRA       738       1      46     275      47     256
CTETRA       739       1      45      46     201      48
CTETRA       740       1      46     562     275     256
CTETRA       741       1     537     213     294     149
CTETRA       742       1     565     149     536     566
CTETRA       743       1     566     157     565     149
CTETRA       744       1      44      60      61      45
CTETRA       745       1      31      42      16      40
CTETRA       746       1     213     150     294     149
CTETRA       747       1     213     294     426     508
CTETRA       748       1     149     240     536     213
CTETRA       749       1     294     150     123     149
CTETRA       750       1     688     341     739     738
CTETRA       751       1     699     698     388     749
CTETRA       752       1     121     229     227     226
CTETRA       753       1     122     138     136     231
CTETRA       754       1     121     122     231      17
CTETRA       755       1     124     150     233      47
CTETRA       756       1      58     274     157     240
CTETRA       757       1     597      35     596     159
CTETRA       758       1      55      30      60      28
CTETRA       759       1      55      56     116      58
CTETRA       760       1      14     121     158      17
CTETRA       761       1     275     254     293     150
CTETRA       762       1     150     254     293     255
CTETRA       763       1     150     295      47     255
CTETRA       764       1     232     294     150     123
CTETRA       765       1     149     150     240     213
CTETRA       766       1     150     296     240     213
CTETRA       767       1     150     232     233     295
CTETRA       768       1      85     587     557     586
CTETRA       769       1     103     104     199     252
CTETRA       770       1      71     105     263      70
CTETRA       771       1      69      25     120      70
CTETRA       772       1      63      74     104     199
CTETRA       773       1      65     221      53      50
CTETRA       774       1      53     198      51     251
CTETRA       775       1      63      64     198      66
CTETRA       776       1      63      74     199      64
CTETRA       777       1     230     158      10     181
CTETRA       778       1     198     224     199     276
CTETRA       779       1     251     198     199     276
CTETRA       780       1     157      58      37     116
CTETRA       781       1     250     104     107     251
CTETRA       782       1      63      65     198      51
CTETRA       783       1     112     292     206     385
CTETRA       784       1     297     279     669     670
CTETRA       785       1     297     281     669     279
CTETRA       786       1     698     389     748     697
CTETRA       787       1     388     389     748     698
CTETRA       788       1     297     279     292     206
CTETRA       789       1     298     288     432     436
CTETRA       790       1     697     281     698     389
CTETRA       791       1     281     698     389     297
CTETRA       792       1     178     185     246     187
CTETRA       793       1     141     178     185     145
CTETRA       794       1     178     259     247     299
CTETRA       795       1     175     259     178     299
CTETRA       796       1     153     175     300     236
CTETRA       797       1      18       3      16     108
CTETRA       798       1     280     193     101      59
CTETRA       799       1     280     618     101     301
CTETRA       800       1     280     173     677     302
CTETRA       801       1     302     301     676     677
CTETRA       802       1     647     280     677     301
CTETRA       803       1     280      59     619      78
CTETRA       804       1     301     675     645     238
CTETRA       805       1     260     671     672     642
CTETRA       806       1     238     674     724     725
CTETRA       807       1     724     238     241     674
CTETRA       808       1     241     724     373     372
CTETRA       809       1     238     378     302     379
CTETRA       810       1     238     675     725     379
CTETRA       811       1     238     241     302     378
CTETRA       812       1     238     302     241     301
CTETRA       813       1     140     447     478     448
CTETRA       814       1     639     174     279     170
CTETRA       815       1      23     170     177     169
CTETRA       816       1     270     636     177     146
CTETRA       817       1     270     635     146     272
CTETRA       818       1     170     638     177     271
CTETRA       819       1     143     608     177     171
CTETRA       820       1     177     145     146     607
CTETRA       821       1     259     407     299     303
CTETRA       822       1     304     178     247     215
CTETRA       823       1     175     155     299     178
CTETRA       824       1     305     259     246     217
CTETRA       825       1     259     217     305     285
CTETRA       826       1     175     217     259     285
CTETRA       827       1     229     282     305     217
CTETRA       828       1       7      13      15      11
CTETRA       829       1     218     282     231      17
CTETRA       830       1     282     218     219     285
CTETRA       831       1     229     289     230     217
CTETRA       832       1     282     218     285     217
CTETRA       833       1     285     219     236     137
CTETRA       834       1     282     305     285     219
CTETRA       835       1     230      12      17     282
CTETRA       836       1      12     218     282     217
CTETRA       837       1      30      28      15      60
CTETRA       838       1     242     557     558     528
CTETRA       839       1     218      13      11     137
CTETRA       840       1     282     217     285     305
CTETRA       841       1     159      39     569     598
CTETRA       842       1     159     161     567     568
CTETRA       843       1     129     132     365     685
CTETRA       844       1     568     161     160     159
CTETRA       845       1     297     281     206     389
CTETRA       846       1     159     569      39     160
CTETRA       847       1     159      43      39     598
CTETRA       848       1     139     233     228     295
CTETRA       849       1     662     267     633     272
CTETRA       850       1     187      12      19       9
CTETRA       851       1       4       6     602     603
CTETRA       852       1     272       4     146     176
CTETRA       853       1      19       3     147       6
CTETRA       854       1       2     631       4     602
CTETRA       855       1     241     273     223     195
CTETRA       856       1      99     184     196     195
CTETRA       857       1     165     292     183     184
CTETRA       858       1     114     234     235     166
CTETRA       859       1     134      86     140     236
CTETRA       860       1     139     255     453     451
CTETRA       861       1     139     447     140     448
CTETRA       862       1     134     135     139     136
CTETRA       863       1     139     453     255     295
CTETRA       864       1     139     447     244     140
CTETRA       865       1     135     244     139     284
CTETRA       866       1      86     278      88     243
CTETRA       867       1     504     762     459     460
CTETRA       868       1      60     138     122      15
CTETRA       869       1     275     150     293     240
CTETRA       870       1     254      47     150     275
CTETRA       871       1     136     233     228     139
CTETRA       872       1     150     233      47     295
CTETRA       873       1     152     165     174     182
CTETRA       874       1     165     292     703     670
CTETRA       875       1     166     556     239     114
CTETRA       876       1      97     184     165     182
CTETRA       877       1     165     292     670     279
CTETRA       878       1      98     239     166     216
CTETRA       879       1     282      12      17     218
CTETRA       880       1      54      66      68      64
CTETRA       881       1      12     230       9     187
CTETRA       882       1       9     306     230     307
CTETRA       883       1     141      19     185     187
CTETRA       884       1      19     186       9       6
CTETRA       885       1       9     186     187     306
CTETRA       886       1       9      92     288      10
CTETRA       887       1     101     589     588     618
CTETRA       888       1     229     230     289     226
CTETRA       889       1     121      17     230     158
CTETRA       890       1     230     307     226     181
CTETRA       891       1       9     307     230      10
CTETRA       892       1     227     219     305     282
CTETRA       893       1     230     306     187     217
CTETRA       894       1     230     217     289     306
CTETRA       895       1     112     385     382     383
CTETRA       896       1     165     164     174     612
CTETRA       897       1     164     611     174     612
CTETRA       898       1     116     162      81     200
CTETRA       899       1      77      78     649     620
CTETRA       900       1      94      30      18      15
CTETRA       901       1      35     148     157     595
CTETRA       902       1     162     163     595     624
CTETRA       903       1      79     162     593     622
CTETRA       904       1     116      79     162     157
CTETRA       905       1     162     157     593     594
CTETRA       906       1     162     163     624     200
CTETRA       907       1     185     577     145     304
CTETRA       908       1     144     171     152     164
CTETRA       909       1     147      19     188     185
CTETRA       910       1     143     178     145     304
CTETRA       911       1      23      27     169     176
CTETRA       912       1     297     669     698     699
CTETRA       913       1      26     147       3     176
CTETRA       914       1     196     183     112     292
CTETRA       915       1     179     196     183     112
CTETRA       916       1      99     197      68     193
CTETRA       917       1     205     206     203     191
CTETRA       918       1     170     203     169     182
CTETRA       919       1     196     110     292     112
CTETRA       920       1     196     292     110     260
CTETRA       921       1     281     698     669     668
CTETRA       922       1      20      24      91      75
CTETRA       923       1     205     103      72      73
CTETRA       924       1     183     165     182     279
CTETRA       925       1     279     639     669     640
CTETRA       926       1     119     191     208     204
CTETRA       927       1     117     191     119     271
CTETRA       928       1     126     349     358     348
CTETRA       929       1     168     196     118     184
CTETRA       930       1     183     205     203      21
CTETRA       931       1     205      73     179     207
CTETRA       932       1      91     118     225      64
CTETRA       933       1     155     142      96     144
CTETRA       934       1      94      13      61      15
CTETRA       935       1     153     300     175     248
CTETRA       936       1      61     137      87     138
CTETRA       937       1     148      37      58     124
CTETRA       938       1      12     217     282     230
CTETRA       939       1     308     473     474     464
CTETRA       940       1     141      19     187     142
CTETRA       941       1     132     655     684     685
CTETRA       942       1      61      13      95     137
CTETRA       943       1      82     201      84      48
CTETRA       944       1      88     113     114     242
CTETRA       945       1      45      47      86     201
CTETRA       946       1     278     236      88     235
CTETRA       947       1     239      89      88      85
CTETRA       948       1      98     216     102     239
CTETRA       949       1     207     399     392     398
CTETRA       950       1     219     218     137     285
CTETRA       951       1     289     411     439     412
CTETRA       952       1     144     190     164     167
CTETRA       953       1     661     267     690     660
CTETRA       954       1     175     155     248     299
CTETRA       955       1     118     224      68     197
CTETRA       956       1     164     171     581     190
CTETRA       957       1      19       3      16      18
CTETRA       958       1     235     300     278     236
CTETRA       959       1     279     639     668     669
CTETRA       960       1      83      99     193     102
CTETRA       961       1      83      48     100      49
CTETRA       962       1     102     193     101     301
CTETRA       963       1     102     616     101     587
CTETRA       964       1     261     589     101      59
CTETRA       965       1     280     301     101     193
CTETRA       966       1      67      66      53     277
CTETRA       967       1      99     195     197     193
CTETRA       968       1      99      98      97     184
CTETRA       969       1      64      66      68     224
CTETRA       970       1      67      66     277     224
CTETRA       971       1     261     589      59     590
CTETRA       972       1     100     258     559     560
CTETRA       973       1     201     258      48     256
CTETRA       974       1     124     123     233     150
CTETRA       975       1      58     274      79     157
CTETRA       976       1      44      58      47      46
CTETRA       977       1      82      83      49      48
CTETRA       978       1     134      47      45     138
CTETRA       979       1      82      88      87      89
CTETRA       980       1     261     561     256     258
CTETRA       981       1      86     236     278     140
CTETRA       982       1      68      44      56      54
CTETRA       983       1      68      67     197     224
CTETRA       984       1     234     151     166     165
CTETRA       985       1      45     201      46      47
CTETRA       986       1     122     138     231      11
CTETRA       987       1     122     233     231     136
CTETRA       988       1      91      24      62      74
CTETRA       989       1      69     105      70     120
CTETRA       990       1      20      27      26      18
CTETRA       991       1      96      23      22     152
CTETRA       992       1     151      97      95      98
CTETRA       993       1      65     125     126     120
CTETRA       994       1     124      47      58     150
CTETRA       995       1     168     179     183      73
CTETRA       996       1     297     670     669     699
CTETRA       997       1     390     697     748     389
CTETRA       998       1      15     137      11      13
CTETRA       999       1     152     169      21     182
CTETRA      1000       1      84     243     290     202
CTETRA      1001       1      31     159      36      35
CTETRA      1002       1      94      95      61      13
CTETRA      1003       1      69      25      32     120
CTETRA      1004       1     697     390     747     696
CTETRA      1005       1      29     116      65      41
CTETRA      1006       1      40     210      39      43
CTETRA      1007       1     117     380     745     395
CTETRA      1008       1     117     271     667     281
CTETRA      1009       1     281     380     696     117
CTETRA      1010       1     390     281     380     696
CTETRA      1011       1     117     666     119     695
CTETRA      1012       1     117     271     666     667
CTETRA      1013       1     707     708     114     249
CTETRA      1014       1     249     192     525     465
CTETRA      1015       1     192     525     465     468
CTETRA      1016       1     192     249     525     167
CTETRA      1017       1     234     706     114     707
CTETRA      1018       1     249     309     310     465
CTETRA      1019       1     244     477     754     789
CTETRA      1020       1     249     235     309     114
CTETRA      1021       1     234     235     249     114
CTETRA      1022       1     143     190     215     551
CTETRA      1023       1      26      23     176      27
CTETRA      1024       1     143     580     190     551
CTETRA      1025       1     152     164     171     174
CTETRA      1026       1     153     249     235     310
CTETRA      1027       1     164     174     611     610
CTETRA      1028       1     177     171     608     609
CTETRA      1029       1     171     581     190     580
CTETRA      1030       1     170     171     610     174
CTETRA      1031       1     170     174     610     639
CTETRA      1032       1     170     610     171     609
CTETRA      1033       1     133     132     684     287
CTETRA      1034       1     287     132     126     133
CTETRA      1035       1     222     287     682     357
CTETRA      1036       1     287     732     682     357
CTETRA      1037       1     287     682     732     733
CTETRA      1038       1     287     356     126     358
CTETRA      1039       1     287     359     683     733
CTETRA      1040       1      69      51     105     120
CTETRA      1041       1     269     105     263     127
CTETRA      1042       1      70     269     131     120
CTETRA      1043       1      71      72     103      73
CTETRA      1044       1      50     250      52      51
CTETRA      1045       1     127     105     263     337
CTETRA      1046       1     250     105     127     337
CTETRA      1047       1      91      62      64      74
CTETRA      1048       1      57      59     620     591
CTETRA      1049       1      79      81     622     621
CTETRA      1050       1      77      80     650      78
CTETRA      1051       1      37     148     157      35
CTETRA      1052       1     116     162     200     163
CTETRA      1053       1      46     562     261     591
CTETRA      1054       1      77      81     651      80
CTETRA      1055       1      57     620      59      78
CTETRA      1056       1     156      65     221      76
CTETRA      1057       1       6     572     602     573
CTETRA      1058       1      99     102     184     195
CTETRA      1059       1     270     176     272     146
CTETRA      1060       1     204     311     119     272
CTETRA      1061       1     204     272     268     311
CTETRA      1062       1      27     204     169     176
CTETRA      1063       1      96      94      13      95
CTETRA      1064       1     268     109     269     266
CTETRA      1065       1     266     268     342     339
CTETRA      1066       1     341     339     338     264
CTETRA      1067       1     266     688     264     341
CTETRA      1068       1     419     226     232     228
CTETRA      1069       1     121     231     228     227
CTETRA      1070       1     229     412     305     751
CTETRA      1071       1     226     415     181     427
CTETRA      1072       1     226     427     181     307
CTETRA      1073       1      92     298     513     436
CTETRA      1074       1      92      10     211     298
CTETRA      1075       1     544     212     543      92
CTETRA      1076       1       9     288      92     186
CTETRA      1077       1     276     333     251     361
CTETRA      1078       1      92     542     211     543
CTETRA      1079       1      92     211     542     513
CTETRA      1080       1      12     230     187     217
CTETRA      1081       1     143     171     579     608
CTETRA      1082       1     178     185     247     246
CTETRA      1083       1      19     186       6     188
CTETRA      1084       1     102      85     587     101
CTETRA      1085       1     102     585     216     614
CTETRA      1086       1     100     101     588     587
CTETRA      1087       1      83     101     102     193
CTETRA      1088       1      85     558     242     557
CTETRA      1089       1     239     242     527     557
CTETRA      1090       1      89      98     239     166
CTETRA      1091       1     118      64      68     224
CTETRA      1092       1     139      47     136     233
CTETRA      1093       1      85     239     557     242
CTETRA      1094       1     255     202     139      47
CTETRA      1095       1     256     258     561     532
CTETRA      1096       1     504     275     254     293
CTETRA      1097       1     202     201      47     254
CTETRA      1098       1     256     257     254     258
CTETRA      1099       1     256     532     257     258
CTETRA      1100       1     124     148     149      58
CTETRA      1101       1     124      37      36     148
CTETRA      1102       1     213     294     421     426
CTETRA      1103       1     181      10     312     158
CTETRA      1104       1     390     389     281     697
CTETRA      1105       1      10     160     312     158
CTETRA      1106       1     211      10     160     312
CTETRA      1107       1     310     463     471     462
CTETRA      1108       1     229     227     282     231
CTETRA      1109       1     230     181      10     307
CTETRA      1110       1     160      10      36     158
CTETRA      1111       1     121     122     123     233
CTETRA      1112       1     121     226     228     232
CTETRA      1113       1     161     160     180     253
CTETRA      1114       1      24      32      74      75
CTETRA      1115       1      47     138     136     233
CTETRA      1116       1      82      89      87      95
CTETRA      1117       1     228     139     284     136
CTETRA      1118       1     295     139     284     228
CTETRA      1119       1      90      94      96      95
CTETRA      1120       1     233     228     231     136
CTETRA      1121       1     231     138     137      11
CTETRA      1122       1     149      58     240     150
CTETRA      1123       1      35     163     596     595
CTETRA      1124       1     106     105     107     263
CTETRA      1125       1      69     104      74      73
CTETRA      1126       1     120     269     131     127
CTETRA      1127       1     109     214     131     265
CTETRA      1128       1     104      74      73     199
CTETRA      1129       1      27       5     204     176
CTETRA      1130       1       5     109      70     268
CTETRA      1131       1     226     418     181     415
CTETRA      1132       1     228     227     420     416
CTETRA      1133       1     226     228     416     227
CTETRA      1134       1     418     419     226     232
CTETRA      1135       1     228     404     295     403
CTETRA      1136       1     228     403     232     419
CTETRA      1137       1     224      66     198      64
CTETRA      1138       1       1     629     600     599
CTETRA      1139       1     261     256     561     562
CTETRA      1140       1     124     233     123     122
CTETRA      1141       1      46     274     591      57
CTETRA      1142       1     274     275     562     563
CTETRA      1143       1      46      57     591      59
CTETRA      1144       1      46     256     261     562
CTETRA      1145       1     158      36     160     161
CTETRA      1146       1      77     621      57     620
CTETRA      1147       1      59     619      78     620
CTETRA      1148       1     197     241     302     301
CTETRA      1149       1      56      78      57      59
CTETRA      1150       1      56      59      49     193
CTETRA      1151       1     270     636     146     635
CTETRA      1152       1     272     633     634       4
CTETRA      1153       1     297     384     292     699
CTETRA      1154       1      72     191     208     205
CTETRA      1155       1     204     272       5     268
CTETRA      1156       1     521     445     779     405
CTETRA      1157       1      72     204      71     209
CTETRA      1158       1      71     204      27      70
CTETRA      1159       1     124     150      58     149
CTETRA      1160       1       8     211     212      10
CTETRA      1161       1     141     142     187     178
CTETRA      1162       1     210     599      43       1
CTETRA      1163       1     210      39     599     570
CTETRA      1164       1       2     212     210     601
CTETRA      1165       1     117     271     119     666
CTETRA      1166       1     119     208     395     396
CTETRA      1167       1     270     271     666     119
CTETRA      1168       1     204     270     119     191
CTETRA      1169       1     270     177     636     271
CTETRA      1170       1     204     208     119     311
CTETRA      1171       1     203     281     117     206
CTETRA      1172       1     270     119     664     272
CTETRA      1173       1       2       8     212       6
CTETRA      1174       1       2     108       5     109
CTETRA      1175       1      24      30      62      63
CTETRA      1176       1     208      72     209     204
CTETRA      1177       1       4     146     176     147
CTETRA      1178       1     523     781     524     470
CTETRA      1179       1     142     187     178     217
CTETRA      1180       1     178     185     145     304
CTETRA      1181       1       9     288     306     307
CTETRA      1182       1     175     285     218     217
CTETRA      1183       1     134     135     137     236
CTETRA      1184       1     283     227     219     305
CTETRA      1185       1     285     305     259     308
CTETRA      1186       1     234     164     612     583
CTETRA      1187       1     512     770     513     434
CTETRA      1188       1     178     246     259     217
CTETRA      1189       1     178     247     259     246
CTETRA      1190       1     178     247     215     299
CTETRA      1191       1     136     137     135     231
CTETRA      1192       1     285     300     236     308
CTETRA      1193       1     248     175     303     300
CTETRA      1194       1     154     236      87     137
CTETRA      1195       1      43       1     628     128
CTETRA      1196       1     148     566     149     157
CTETRA      1197       1      25      32      42      16
CTETRA      1198       1       7      10       9      17
CTETRA      1199       1      43     626     163     128
CTETRA      1200       1      43     599      39     598
CTETRA      1201       1      77      80     651     650
CTETRA      1202       1     626     163     596      35
CTETRA      1203       1     148     159     161     567
CTETRA      1204       1     163     625     133     626
CTETRA      1205       1      99     184     118     196
CTETRA      1206       1     163     200     625     624
CTETRA      1207       1     148     149      58     157
CTETRA      1208       1      56     193      67     280
CTETRA      1209       1      39     160      10      36
CTETRA      1210       1     157     149      58     240
CTETRA      1211       1     116     162      37     157
CTETRA      1212       1     148     566     157     595
CTETRA      1213       1     102     614     216     260
CTETRA      1214       1     674     241     673     195
CTETRA      1215       1     195     260     643     614
CTETRA      1216       1     197     193     195     301
CTETRA      1217       1     211     572     542     571
CTETRA      1218       1     215     405     469     467
CTETRA      1219       1     225     199     224     276
CTETRA      1220       1      91     168      21      73
CTETRA      1221       1     225     237     277     224
CTETRA      1222       1     194     225     224     237
CTETRA      1223       1      72      21      73      75
CTETRA      1224       1      93     118      99      97
CTETRA      1225       1     122      15      11      17
CTETRA      1226       1     275     563     240     534
CTETRA      1227       1     134     137      87     236
CTETRA      1228       1      87      86     236      88
CTETRA      1229       1     119     694     695     665
CTETRA      1230       1     601       1     600     210
CTETRA      1231       1      42      40      43       1
CTETRA      1232       1      42     128     131       1
CTETRA      1233       1      31      41      43      35
CTETRA      1234       1     296     403     232     295
CTETRA      1235       1     541     540     160     570
CTETRA      1236       1      14     158      10      17
CTETRA      1237       1     159     160     568     569
CTETRA      1238       1     570     540     160     569
CTETRA      1239       1     165     292     184     260
CTETRA      1240       1     216     704     260     613
CTETRA      1241       1     216     260     614     613
CTETRA      1242       1     165     174     641     612
CTETRA      1243       1     151     166      89     235
CTETRA      1244       1     163     626     133     128
CTETRA      1245       1     120      42      32      29
CTETRA      1246       1     142     175     178     155
CTETRA      1247       1      92      10     298     288
CTETRA      1248       1      19       6     147     188
CTETRA      1249       1     211     572     210     212
CTETRA      1250       1      69      71     104      73
CTETRA      1251       1      39      10     160     211
CTETRA      1252       1       9     187     230     306
CTETRA      1253       1       9      10     288     307
CTETRA      1254       1     212       6     572     601
CTETRA      1255       1       6     574     147     188
CTETRA      1256       1     164     610     171     174
CTETRA      1257       1     152     168      97     182
CTETRA      1258       1     152     182     170     169
CTETRA      1259       1     694     395     745     744
CTETRA      1260       1     164     582     190     581
CTETRA      1261       1     170     182     174     279
CTETRA      1262       1     279     292     183     165
CTETRA      1263       1     164     167     582     583
CTETRA      1264       1     165     704     216     705
CTETRA      1265       1     165     703     292     260
CTETRA      1266       1     623     162      81     622
CTETRA      1267       1     183     112     292     206
CTETRA      1268       1     184     165     182     183
CTETRA      1269       1       2     210      40       1
CTETRA      1270       1      23     169     177     176
CTETRA      1271       1     175     303     259     299
CTETRA      1272       1      14     122     124     123
CTETRA      1273       1       5     272     204     176
CTETRA      1274       1     147     188     574     575
CTETRA      1275       1     212       6     573     572
CTETRA      1276       1       4     633     634     604
CTETRA      1277       1       6     574     186     573
CTETRA      1278       1     212     543     572     573
CTETRA      1279       1     177     607     146     636
CTETRA      1280       1     185     188     517     245
CTETRA      1281       1       2     108       8       3
CTETRA      1282       1       7      12      18      13
CTETRA      1283       1       3       6       4     147
CTETRA      1284       1     146     634     272     635
CTETRA      1285       1     634       4     146     272
CTETRA      1286       1       7      11      15      17
CTETRA      1287       1     145     146     606     605
CTETRA      1288       1     225     224     277     276
CTETRA      1289       1     225     252      73     199
CTETRA      1290       1     252     713     220     712
CTETRA      1291       1     196     223     110     273
CTETRA      1292       1      69      27      25      70
CTETRA      1293       1     103      73     252     199
CTETRA      1294       1     103     104      73     199
CTETRA      1295       1     170     271     667     638
CTETRA      1296       1     187     245     246     306
CTETRA      1297       1      91      75      24      74
CTETRA      1298       1     165     234     705     166
CTETRA      1299       1      83     193      49     101
CTETRA      1300       1     165     260     216     704
CTETRA      1301       1     179      73     225     220
CTETRA      1302       1      91     179     168      73
CTETRA      1303       1     297     385     292     384
CTETRA      1304       1     155     192     299     215
CTETRA      1305       1       6     602     572     601
CTETRA      1306       1       7      19      18      12
CTETRA      1307       1      93      68      49     193
CTETRA      1308       1     102     195     193     301
CTETRA      1309       1      73      64     199      74
CTETRA      1310       1     177     176     146      23
CTETRA      1311       1      24      18      94      30
CTETRA      1312       1     270     191     204     169
CTETRA      1313       1     203     191     206     117
CTETRA      1314       1     143     145     578     304
CTETRA      1315       1     203     191     117     271
CTETRA      1316       1     640     639     174     279
CTETRA      1317       1     299     178     155     215
CTETRA      1318       1     135     282     218     219
CTETRA      1319       1     170     171     177     609
CTETRA      1320       1     144     171     164     190
CTETRA      1321       1     170     271     281     667
CTETRA      1322       1     210     600     571     570
CTETRA      1323       1     310     300     278     235
CTETRA      1324       1     236     244     308     300
CTETRA      1325       1     218     231     137      11
CTETRA      1326       1      27     108      18      25
CTETRA      1327       1      86     236      88     278
CTETRA      1328       1     236     244     478     140
CTETRA      1329       1     245     442     441     446
CTETRA      1330       1     136     284     227     135
CTETRA      1331       1     114     242     527     239
CTETRA      1332       1      89     166     114     235
CTETRA      1333       1     304     143     579     578
CTETRA      1334       1     115     235      88     114
CTETRA      1335       1     235     114     115     309
CTETRA      1336       1     285     308     303     300
CTETRA      1337       1     234     166     114     706
CTETRA      1338       1     165     216     166     705
CTETRA      1339       1     102      85     239     586
CTETRA      1340       1     249     309     235     310
CTETRA      1341       1     175     259     303     285
CTETRA      1342       1     143     178     304     215
CTETRA      1343       1     175     137     218     285
CTETRA      1344       1     280     197     301     193
CTETRA      1345       1     102      85     586     587
CTETRA      1346       1     286     252     220     225
CTETRA      1347       1     102     184     260     216
CTETRA      1348       1     225      64     224     199
CTETRA      1349       1      66     277     224     276
CTETRA      1350       1      68      67     193     197
CTETRA      1351       1      44      47      60      45
CTETRA      1352       1     102     195     645     615
CTETRA      1353       1     138     137      11      15
CTETRA      1354       1     225     276     277     286
CTETRA      1355       1     118     194     225     224
CTETRA      1356       1      56      49      68     193
CTETRA      1357       1      45      60     138      47
CTETRA      1358       1      86     201      47     202
CTETRA      1359       1     115     243     113      88
CTETRA      1360       1      85     558     100      84
CTETRA      1361       1     139      47     295     255
CTETRA      1362       1     261     258     560     561
CTETRA      1363       1     101      59     589     618
CTETRA      1364       1      56     280      59     193
CTETRA      1365       1     194     237     241     273
CTETRA      1366       1     643     672     260     195
CTETRA      1367       1     238     195     301     241
CTETRA      1368       1     301     195     645     102
CTETRA      1369       1     100      48      84     258
CTETRA      1370       1     101     301     618     617
CTETRA      1371       1     164     581     171     610
CTETRA      1372       1      64     224     199     198
CTETRA      1373       1     205      72     103     209
CTETRA      1374       1     125     129     131     128
CTETRA      1375       1     109      70     268     269
CTETRA      1376       1     523     780     781     469
CTETRA      1377       1     265     131     269     127
CTETRA      1378       1     125     120     131     127
CTETRA      1379       1     125      65      41     120
CTETRA      1380       1     158     180     312     181
CTETRA      1381       1     180     232     181     123
CTETRA      1382       1     636     271     666     270
CTETRA      1383       1     185     245     247     246
CTETRA      1384       1     230     158      17      10
CTETRA      1385       1       7      19      16      18
CTETRA      1386       1      40     210      43       1
CTETRA      1387       1     218      17     231      11
CTETRA      1388       1     229     430     227     416
CTETRA      1389       1      10     181     298     307
CTETRA      1390       1     160     158     180     312
CTETRA      1391       1      35     162     163     595
CTETRA      1392       1     274     564     240     563
CTETRA      1393       1      46     261      49      59
CTETRA      1394       1     131     127     265     130
CTETRA      1395       1     125     127     130     126
CTETRA      1396       1     105     263      70     269
CTETRA      1397       1     286     225     237     277
CTETRA      1398       1     571     210     570     211
CTETRA      1399       1      46     591     274     562
CTETRA      1400       1     117     208     393     395
CTETRA      1401       1     206     208     191     205
CTETRA      1402       1     372     238     241     724
CTETRA      1403       1     297     206     281     279
CTETRA      1404       1     297     669     281     698
CTETRA      1405       1     281     279     668     669
CTETRA      1406       1     203     281     206     279
CTETRA      1407       1     313     789     754     700
CTETRA      1408       1     228     403     419     404
CTETRA      1409       1     170     281     279     668
CTETRA      1410       1     651      77     621      81
CTETRA      1411       1      80     649      78     678
CTETRA      1412       1      76      80     172     222
CTETRA      1413       1      80      78     649     650
CTETRA      1414       1      80     680     222     651
CTETRA      1415       1      80     352     222     680
CTETRA      1416       1     272     691     268     311
CTETRA      1417       1     272     692     311     693
CTETRA      1418       1     311     268     340     691
CTETRA      1419       1     311     262     208     394
CTETRA      1420       1     311     340     268     327
CTETRA      1421       1     311     327     262     394
CTETRA      1422       1     103     291     207     209
CTETRA      1423       1     106     107     711     329
CTETRA      1424       1     103     291     252     220
CTETRA      1425       1     291     209     398     207
CTETRA      1426       1     106     263     107     329
CTETRA      1427       1     672     260     195     223
CTETRA      1428       1     223     373     241     673
CTETRA      1429       1     223     386     387     110
CTETRA      1430       1     223     273     368     386
CTETRA      1431       1     223     110     387     671
CTETRA      1432       1     367     223     386     387
CTETRA      1433       1     223     241     373     371
CTETRA      1434       1     223     368     273     371
CTETRA      1435       1     223     672     260     671
CTETRA      1436       1     373     673     724     241
CTETRA      1437       1     241     273     237     375
CTETRA      1438       1      35     163      43     626
CTETRA      1439       1     157      35     162      37
CTETRA      1440       1     521     779     445     778
CTETRA      1441       1     287     222     682     653
CTETRA      1442       1     133     655     128     626
CTETRA      1443       1     156     287     133     200
CTETRA      1444       1     200     654     287     133
CTETRA      1445       1     116      58      56      79
CTETRA      1446       1      41     163     200     133
CTETRA      1447       1     125      41     133     128
CTETRA      1448       1     289     307     428     429
CTETRA      1449       1     229     217     305     289
CTETRA      1450       1     229     282     227     305
CTETRA      1451       1     230     181     226     158
CTETRA      1452       1     289     305     412     439
CTETRA      1453       1     246     305     289     439
CTETRA      1454       1     269     343     344     345
CTETRA      1455       1     126      50     364     348
CTETRA      1456       1     132     126     349     359
CTETRA      1457       1     127     126     366     130
CTETRA      1458       1     126     366     364     127
CTETRA      1459       1     127     364     126      50
CTETRA      1460       1      65      66      53      56
CTETRA      1461       1     653     200     654     287
CTETRA      1462       1     127     336     130     366
CTETRA      1463       1     250     337     127     364
CTETRA      1464       1     321     485     710      34
CTETRA      1465       1      42      70     131     120
CTETRA      1466       1     269     131     265     109
CTETRA      1467       1      67      78     280     173
CTETRA      1468       1     148     161     123     149
CTETRA      1469       1     240     149     536     565
CTETRA      1470       1      71      72      27     204
CTETRA      1471       1      65     198      51      53
CTETRA      1472       1     276     251     252     199
CTETRA      1473       1     298     434     513     436
CTETRA      1474       1      92     186     314     515
CTETRA      1475       1     181     312     298     413
CTETRA      1476       1      10     298     288     307
CTETRA      1477       1     310     192     466     248
CTETRA      1478       1     466     467     472     248
CTETRA      1479       1     153     248     192     310
CTETRA      1480       1     117     746     695     745
CTETRA      1481       1     208     117     191     119
CTETRA      1482       1     119     270     665     666
CTETRA      1483       1     315     496     490     495
CTETRA      1484       1     119     694     396     395
CTETRA      1485       1     222     352     355     730
CTETRA      1486       1     205      72     209     208
CTETRA      1487       1     208     209     393     391
CTETRA      1488       1     341     266     689     342
CTETRA      1489       1     208     209     391     262
CTETRA      1490       1      67     302     280     197
CTETRA      1491       1     280     301     197     302
CTETRA      1492       1      38     331     351     173
CTETRA      1493       1     228     284     227     136
CTETRA      1494       1     173     302     331     330
CTETRA      1495       1     280     677     173      78
CTETRA      1496       1     346      38     331     351
CTETRA      1497       1     185     246     187     245
CTETRA      1498       1     245     185     518     517
CTETRA      1499       1     245     246     437     442
CTETRA      1500       1     245     446     247     442
CTETRA      1501       1      25      27     108      70
CTETRA      1502       1     123     294     180     232
CTETRA      1503       1     207     205     112     179
CTETRA      1504       1     229     226     289     429
CTETRA      1505       1     289     306     410     428
CTETRA      1506       1     283     305     750     751
CTETRA      1507       1     217     305     289     246
CTETRA      1508       1     439     437     411     289
CTETRA      1509       1     229     226     429     416
CTETRA      1510       1     266     268     690     342
CTETRA      1511       1     689     341     739     688
CTETRA      1512       1     265     269     339     343
CTETRA      1513       1     129     658     264     214
CTETRA      1514       1     264     130     335     334
CTETRA      1515       1     129       1     658     214
CTETRA      1516       1     257     202     450     455
CTETRA      1517       1     257     531     258     532
CTETRA      1518       1     201     257     254     202
CTETRA      1519       1     257     530     258     531
CTETRA      1520       1     201     257      84     258
CTETRA      1521       1     257     503     458     502
CTETRA      1522       1     254     451     202     455
CTETRA      1523       1     256     503     533     254
CTETRA      1524       1     533     504     275     254
CTETRA      1525       1      76      67     173      78
CTETRA      1526       1      53     172      38     221
CTETRA      1527       1      67     277     173     237
CTETRA      1528       1     299     215     467     405
CTETRA      1529       1     248     467     472     299
CTETRA      1530       1     299     405     247     215
CTETRA      1531       1     299     472     248     303
CTETRA      1532       1     299     438     247     443
CTETRA      1533       1     713     252     107     712
CTETRA      1534       1     259     438     299     407
CTETRA      1535       1     288     307     432     428
CTETRA      1536       1      92     298     211     513
CTETRA      1537       1      92     544     186     515
CTETRA      1538       1      92     436     514     435
CTETRA      1539       1      92     186     544     212
CTETRA      1540       1      92     314     288     435
CTETRA      1541       1     147     634     604       4
CTETRA      1542       1       2       8      40     210
CTETRA      1543       1     686     129     687     334
CTETRA      1544       1     283     752     313     753
CTETRA      1545       1     129     334     686     365
CTETRA      1546       1     265     214     266     109
CTETRA      1547       1     366     126     132     130
CTETRA      1548       1     127     265     130     336
CTETRA      1549       1     129     365     130     334
CTETRA      1550       1     265     269     343     336
CTETRA      1551       1     206     382     112     385
CTETRA      1552       1     696     746     695     117
CTETRA      1553       1     676     727     726     330
CTETRA      1554       1     205     393     209     392
CTETRA      1555       1     206     207     382     392
CTETRA      1556       1     281     380     381     390
CTETRA      1557       1      92     435     288     436
CTETRA      1558       1     161     253     538     539
CTETRA      1559       1      14     121     123     158
CTETRA      1560       1     180     511     312     413
CTETRA      1561       1     181     414     180     413
CTETRA      1562       1     181     180     414     418
CTETRA      1563       1     422     232     180     294
CTETRA      1564       1      38     221     172     354
CTETRA      1565       1      38     277     361     332
CTETRA      1566       1     133     654     684     655
CTETRA      1567       1     172     222     352     355
CTETRA      1568       1     356     347     354     221
CTETRA      1569       1     221     347     354      38
CTETRA      1570       1     351     172      38     173
CTETRA      1571       1      81     156     200     222
CTETRA      1572       1     172     356     222     355
CTETRA      1573       1     172     221      76     222
CTETRA      1574       1     172     222     356     221
CTETRA      1575       1     109       1     131     214
CTETRA      1576       1       2     631     214     109
CTETRA      1577       1     129     657       1     128
CTETRA      1578       1       3      26      18      19
CTETRA      1579       1       2     630     214     631
CTETRA      1580       1       1     629     214     630
CTETRA      1581       1     684     734     683     359
CTETRA      1582       1      36       8      10      39
CTETRA      1583       1       8     212       9      10
CTETRA      1584       1     145     146     607     606
CTETRA      1585       1     205     209     207     392
CTETRA      1586       1     189     321     322     316
CTETRA      1587       1     208     394     262     391
CTETRA      1588       1     204     208     311     262
CTETRA      1589       1     117     393     208     206
CTETRA      1590       1     262     394     327     391
CTETRA      1591       1     394     396     208     311
CTETRA      1592       1     175     285     300     236
CTETRA      1593       1     300     472     474     303
CTETRA      1594       1     192     467     299     215
CTETRA      1595       1      26     176     146     147
CTETRA      1596       1     297     699     388     384
CTETRA      1597       1     320     710      33     709
CTETRA      1598       1     234     166     706     705
CTETRA      1599       1     171     190     144     143
CTETRA      1600       1     155     192     215     190
CTETRA      1601       1     401     424     507     213
CTETRA      1602       1       4     633     603     632
CTETRA      1603       1     299     192     248     467
CTETRA      1604       1     482     309     755     479
CTETRA      1605       1     520     445     777     778
CTETRA      1606       1     298     432     288     307
CTETRA      1607       1     291     400     712     398
CTETRA      1608       1     314     306     188     186
CTETRA      1609       1     185     247     245     519
CTETRA      1610       1       9     306     288     186
CTETRA      1611       1     673     373     724     723
CTETRA      1612       1     293     459     457     456
CTETRA      1613       1     313     489     752     751
CTETRA      1614       1      27     191     204      72
CTETRA      1615       1     289     306     428     307
CTETRA      1616       1     288     306     428     433
CTETRA      1617       1     217     289     306     246
CTETRA      1618       1     251     360     715     362
CTETRA      1619       1     230     306     289     307
CTETRA      1620       1     256     562     532     561
CTETRA      1621       1     187     245     306     188
CTETRA      1622       1      67     173     302     237
CTETRA      1623       1     283     750     313     751
CTETRA      1624       1     167     192     524     525
CTETRA      1625       1     291     398     397     400
CTETRA      1626       1     155     299     192     248
CTETRA      1627       1     769     413     770     512
CTETRA      1628       1     283     754     244     284
CTETRA      1629       1     515     435     772     773
CTETRA      1630       1     245     410     441     437
CTETRA      1631       1     315     313     490     491
CTETRA      1632       1     471     472     474     300
CTETRA      1633       1     203     279     183     182
CTETRA      1634       1     234     554     167     583
CTETRA      1635       1     229     416     429     430
CTETRA      1636       1     289     429     411     412
CTETRA      1637       1     349     366     126     132
CTETRA      1638       1     708     114     249     309
CTETRA      1639       1     313     488     751     750
CTETRA      1640       1     235     309     115     278
CTETRA      1641       1     249     192     465     310
CTETRA      1642       1     259     308     303     285
CTETRA      1643       1     310     463     278     300
CTETRA      1644       1     310     300     471     463
CTETRA      1645       1     111     370     376     369
CTETRA      1646       1     401     296     421     213
CTETRA      1647       1     244     283     135     219
CTETRA      1648       1     274     563     562     592
CTETRA      1649       1     293     401     296     457
CTETRA      1650       1      81     651     652     622
CTETRA      1651       1     301     616     645     646
CTETRA      1652       1     296     213     150     294
CTETRA      1653       1     421     417     294     296
CTETRA      1654       1     417     296     403     232
CTETRA      1655       1     240     505     213     296
CTETRA      1656       1     126     358     349     359
CTETRA      1657       1      46      49      45      44
CTETRA      1658       1     192     467     215     469
CTETRA      1659       1     145     605     147     146
CTETRA      1660       1     190     215     551     552
CTETRA      1661       1      17     282     231     230
CTETRA      1662       1     126     221     348     356
CTETRA      1663       1       6     573     603     574
CTETRA      1664       1     234     249     707     114
CTETRA      1665       1     321     485     716     710
CTETRA      1666       1     216     614     585     584
CTETRA      1667       1     315     313     491     700
CTETRA      1668       1     283     305     219     750
CTETRA      1669       1     283     219     789     750
CTETRA      1670       1     143     304     579     550
CTETRA      1671       1     466     248     471     310
CTETRA      1672       1     175     299     248     303
CTETRA      1673       1     143     550     215     304
CTETRA      1674       1     129     128     132     656
CTETRA      1675       1     568     159     597     567
CTETRA      1676       1      35     159     597      43
CTETRA      1677       1     514     771     772     436
CTETRA      1678       1     267       5     109     631
CTETRA      1679       1       6     147     574     603
CTETRA      1680       1     434     312     512     413
CTETRA      1681       1       5     272       4     267
CTETRA      1682       1     525     782     783     468
CTETRA      1683       1     496     784     486     790
CTETRA      1684       1     486     494     495     701
CTETRA      1685       1     691     267     272     268
CTETRA      1686       1     145     605     606     576
CTETRA      1687       1     292     112     110     385
CTETRA      1688       1     292     670     699     702
CTETRA      1689       1     686     737     736     334
CTETRA      1690       1     267     633     272       4
CTETRA      1691       1     290     450     481     483
CTETRA      1692       1     204      70     262     268
CTETRA      1693       1     122     136     138     233
CTETRA      1694       1     276      66     198     224
CTETRA      1695       1     286     377     277     237
CTETRA      1696       1     356     287     126     222
CTETRA      1697       1     276     286     376     277
CTETRA      1698       1     313     490     491     753
CTETRA      1699       1     286     111     376     369
CTETRA      1700       1     129     214     131       1
CTETRA      1701       1     127     265     336     269
CTETRA      1702       1       1     128     657     628
CTETRA      1703       1     244     477     789     464
CTETRA      1704       1     125     131      42     128
CTETRA      1705       1     111     376     370     220
CTETRA      1706       1      43       1     599     628
CTETRA      1707       1     283     751     313     752
CTETRA      1708       1     229     305     227     751
CTETRA      1709       1     111     399     220     370
CTETRA      1710       1     129     658       1     657
CTETRA      1711       1       1     658     214     629
CTETRA      1712       1     106     397     328     329
CTETRA      1713       1      82      49      93      61
CTETRA      1714       1     252     713     714     333
CTETRA      1715       1     306     433     410     428
CTETRA      1716       1     270     635     664     665
CTETRA      1717       1     313     489     490     752
CTETRA      1718       1     194     224     197     237
CTETRA      1719       1     259     303     408     407
CTETRA      1720       1     315     487     492     493
CTETRA      1721       1     127     105     120     269
CTETRA      1722       1       4     632     267     633
CTETRA      1723       1      23     143     177     171
CTETRA      1724       1     605     634     604     147
CTETRA      1725       1     264     214     658     659
CTETRA      1726       1     170     203     279     281
CTETRA      1727       1     596     159     567     597
CTETRA      1728       1     314     188     545     186
CTETRA      1729       1     129     264     334     130
CTETRA      1730       1     275     534     533     563
CTETRA      1731       1     153     248     310     300
CTETRA      1732       1     143     142     178     155
CTETRA      1733       1     287     733     357     358
CTETRA      1734       1     165     612     234     164
CTETRA      1735       1     300     244     478     236
CTETRA      1736       1     149     157     565     240
CTETRA      1737       1     210      39      43     599
CTETRA      1738       1     712     713     793     107
CTETRA      1739       1      66      68     224      67
CTETRA      1740       1     313     487     750     789
CTETRA      1741       1     233     228     295     232
CTETRA      1742       1     226     419     418     415
CTETRA      1743       1      63      51     198     104
CTETRA      1744       1     274     563     593     564
CTETRA      1745       1     291     400     397     711
CTETRA      1746       1       2     108       3       5
CTETRA      1747       1     106     397     209     328
CTETRA      1748       1     119     693     694     664
CTETRA      1749       1     172     355     352     354
CTETRA      1750       1     194     196     225     273
CTETRA      1751       1     204     311     268     262
CTETRA      1752       1      53     276     198     251
CTETRA      1753       1     267     631     214     660
CTETRA      1754       1     185     547     188     576
CTETRA      1755       1     793     107     711     712
CTETRA      1756       1     159      43     598     597
CTETRA      1757       1     314     435     409     433
CTETRA      1758       1       4     147     603     604
CTETRA      1759       1     210     601     571     600
CTETRA      1760       1     117     381     281     380
CTETRA      1761       1     203     271     117     281
CTETRA      1762       1     315     495     490     489
CTETRA      1763       1     659     264     266     688
CTETRA      1764       1      71     262     263     106
CTETRA      1765       1     117     119     208     395
CTETRA      1766       1     264     265     335     130
CTETRA      1767       1     315     313     489     490
CTETRA      1768       1     315     487     313     700
CTETRA      1769       1     119     664     272     693
CTETRA      1770       1     315     701     700     491
CTETRA      1771       1     269     268     345     262
CTETRA      1772       1     269     268     339     345
CTETRA      1773       1     269     263     345     344
CTETRA      1774       1     215     552     523     522
CTETRA      1775       1     286     273     111     375
CTETRA      1776       1     305     751     440     750
CTETRA      1777       1     422     180     425     253
CTETRA      1778       1     315     492     700     701
CTETRA      1779       1     112     207     111     399
CTETRA      1780       1     305     750     440     408
CTETRA      1781       1     713     252     220     376
CTETRA      1782       1     277      66      53     276
CTETRA      1783       1     220     398     712     370
CTETRA      1784       1     111     375     369     286
CTETRA      1785       1     277     361     332     333
CTETRA      1786       1     227     753     420     752
CTETRA      1787       1     541     570     160     211
CTETRA      1788       1     315     701     496     495
CTETRA      1789       1     168     179     118     196
CTETRA      1790       1     112     383     110     385
CTETRA      1791       1     315     488     313     487
CTETRA      1792       1     486     492     493     701
CTETRA      1793       1     112     207     399     382
CTETRA      1794       1     495     486     785     494
CTETRA      1795       1     183     206     292     279
CTETRA      1796       1     315     494     488     493
CTETRA      1797       1     386     111     110     273
CTETRA      1798       1     109     267     268       5
CTETRA      1799       1     255     456     452     451
CTETRA      1800       1     438     246     439     259
CTETRA      1801       1     244     477     447     754
CTETRA      1802       1     241     273     375     371
CTETRA      1803       1     112     399     111     383
CTETRA      1804       1     167     583     553     582
CTETRA      1805       1     308     473     408     474
CTETRA      1806       1     292     384     110     702
CTETRA      1807       1     177     636     271     637
CTETRA      1808       1     222     680     730     731
CTETRA      1809       1      76      56      67      78
CTETRA      1810       1     227     283     752     751
CTETRA      1811       1     156     222     287     200
CTETRA      1812       1      81     222     652     651
CTETRA      1813       1     227     430     751     752
CTETRA      1814       1     681     652     682     222
CTETRA      1815       1      88     278     235     115
CTETRA      1816       1     192     466     468     465
CTETRA      1817       1     236     153     235     300
CTETRA      1818       1     298     307     427     432
CTETRA      1819       1     149     537     213     536
CTETRA      1820       1     257     502     501     531
CTETRA      1821       1     114     526     527     497
CTETRA      1822       1     478     236     278     300
CTETRA      1823       1     293     452     255     456
CTETRA      1824       1     189     709     715     320
CTETRA      1825       1     255     295     453     452
CTETRA      1826       1      86     202     139     140
CTETRA      1827       1     713     793     715     189
CTETRA      1828       1     713     320     714     319
CTETRA      1829       1     236     134     135     244
CTETRA      1830       1     293     254     456     255
CTETRA      1831       1     150     255     296     295
CTETRA      1832       1     715     320     714     713
CTETRA      1833       1     170     169     203     271
CTETRA      1834       1     284     447     454     754
CTETRA      1835       1     114     235      88      89
CTETRA      1836       1     334     687     738     264
CTETRA      1837       1     189     711     793     316
CTETRA      1838       1     104     198     199     251
CTETRA      1839       1     607     145     578     177
CTETRA      1840       1     166     239     556     585
CTETRA      1841       1     213     424     508     426
CTETRA      1842       1      86     140     278     243
CTETRA      1843       1     189     316     709     321
CTETRA      1844       1      88     278     115     243
CTETRA      1845       1      58      46     274     275
CTETRA      1846       1     166     239     585     216
CTETRA      1847       1     758     290     501     500
CTETRA      1848       1     189     316     793     709
CTETRA      1849       1     309     278     310     462
CTETRA      1850       1     251     360     333     714
CTETRA      1851       1     719     718     323     485
CTETRA      1852       1     323     485     322      34
CTETRA      1853       1     263     127     344     269
CTETRA      1854       1     311     268     262     327
CTETRA      1855       1     283     789     244     754
CTETRA      1856       1     179     111     196     112
CTETRA      1857       1     301     618     617     647
CTETRA      1858       1     699     384     749     388
CTETRA      1859       1     662     691     267     272
CTETRA      1860       1     117     281     381     206
CTETRA      1861       1     739     689     740     342
CTETRA      1862       1     109     266     265     269
CTETRA      1863       1     268     345     262     327
CTETRA      1864       1     287     653     683     654
CTETRA      1865       1     249     525     707     708
CTETRA      1866       1     298     181      10     312
CTETRA      1867       1     268     690     342     691
CTETRA      1868       1      43     598     628     599
CTETRA      1869       1     189     319     713     318
CTETRA      1870       1      59     619     590     589
CTETRA      1871       1     253     294     426     422
CTETRA      1872       1      67     197     237     302
CTETRA      1873       1     222     680     681     651
CTETRA      1874       1     127     366     364     336
CTETRA      1875       1     157     565     594     595
CTETRA      1876       1     283     754     313     789
CTETRA      1877       1     189     712     793     711
CTETRA      1878       1     166     555     114     706
CTETRA      1879       1      55     124      60      58
CTETRA      1880       1     495     701     496     486
CTETRA      1881       1     280      59     101     618
CTETRA      1882       1     173      78     677     678
CTETRA      1883       1     280      59     618     619
CTETRA      1884       1     280     677      78     648
CTETRA      1885       1     173     677     302     330
CTETRA      1886       1      80     172     352     351
CTETRA      1887       1     241     237     378     375
CTETRA      1888       1     238     241     378     372
CTETRA      1889       1     119     694     665     664
CTETRA      1890       1     310     471     466     465
CTETRA      1891       1      38      53      67     172
CTETRA      1892       1     302     378     237     331
CTETRA      1893       1     245     444     441     409
CTETRA      1894       1     302     676     379     330
CTETRA      1895       1     790     701     486     496
CTETRA      1896       1     410     289     246     306
CTETRA      1897       1     164     612     582     611
CTETRA      1898       1     230     289     226     307
CTETRA      1899       1     147     188     575     576
CTETRA      1900       1     787     486     492     493
CTETRA      1901       1     259     246     247     438
CTETRA      1902       1     511     769     425     768
CTETRA      1903       1     472     299     407     303
CTETRA      1904       1     192     469     215     523
CTETRA      1905       1     215     304     550     521
CTETRA      1906       1     143     551     215     550
CTETRA      1907       1     701     492     493     315
CTETRA      1908       1     215     522     469     405
CTETRA      1909       1     190     523     215     552
CTETRA      1910       1     203     169     191     271
CTETRA      1911       1     192     190     524     523
CTETRA      1912       1     192     190     167     524
CTETRA      1913       1     788     701     486     790
CTETRA      1914       1     313     491     700     754
CTETRA      1915       1     195     223     673     672
CTETRA      1916       1     297     389     206     385
CTETRA      1917       1     166     114     555     556
CTETRA      1918       1     313     487     789     700
CTETRA      1919       1     315     313     488     489
CTETRA      1920       1      34     324     325     319
CTETRA      1921       1     170     667     281     668
CTETRA      1922       1     315     488     487     493
CTETRA      1923       1     315     701     494     493
CTETRA      1924       1     297     292     670     699
CTETRA      1925       1     493     701     494     486
CTETRA      1926       1     492     701     486     788
CTETRA      1927       1     315     700     492     487
CTETRA      1928       1     110     702     384     387
CTETRA      1929       1      70     268     269     262
CTETRA      1930       1      53     221      52      50
CTETRA      1931       1     196     110     223     260
CTETRA      1932       1     305     412     440     751
CTETRA      1933       1     368     375     369     111
CTETRA      1934       1     265     266     264     339
CTETRA      1935       1     107     793     711     329
CTETRA      1936       1     181     418     414     415
CTETRA      1937       1      80     173     353     678
CTETRA      1938       1      34     485     322     321
CTETRA      1939       1     280     647     648     618
CTETRA      1940       1      82      86      88     201
CTETRA      1941       1      65     126     221      50
CTETRA      1942       1     273     194     195     241
CTETRA      1943       1     324     485      34     325
CTETRA      1944       1      80     679     353     352
CTETRA      1945       1      80     353     173     351
CTETRA      1946       1      38     221     347      52
CTETRA      1947       1     189     711     317     712
CTETRA      1948       1     677     301     676     647
CTETRA      1949       1     187     306     186     188
CTETRA      1950       1     717     321     485     716
CTETRA      1951       1      33     320     325     710
CTETRA      1952       1     710     485     716     794
CTETRA      1953       1      80      78     173     678
CTETRA      1954       1     244     284     754     447
CTETRA      1955       1     276      38     277     361
CTETRA      1956       1      38     277     332     331
CTETRA      1957       1     209     392     393     391
CTETRA      1958       1     121     233     228     231
CTETRA      1959       1     121     231     122     233
CTETRA      1960       1     227     753     283     284
CTETRA      1961       1      31      40      39      43
CTETRA      1962       1     293     296     452     457
CTETRA      1963       1     686     736     365     334
CTETRA      1964       1     511     540     510     253
CTETRA      1965       1     180     418     181     232
CTETRA      1966       1     228     295     232     403
CTETRA      1967       1     794     325     710     485
CTETRA      1968       1     150     293     296     255
CTETRA      1969       1     403     296     452     295
CTETRA      1970       1     312     512     542     513
CTETRA      1971       1      34     317     323     318
CTETRA      1972       1       2      40     108       1
CTETRA      1973       1     189     322     317     316
CTETRA      1974       1     161     539     160     253
CTETRA      1975       1      38     346     361     347
CTETRA      1976       1     287     358     357     356
CTETRA      1977       1     376     252     220     286
CTETRA      1978       1     206     207     112     382
CTETRA      1979       1     165     260     704     703
CTETRA      1980       1     165     641     279     670
CTETRA      1981       1     189     709     793     715
CTETRA      1982       1     320     189     713     715
CTETRA      1983       1     264     688     738     341
CTETRA      1984       1     292     206     385     297
CTETRA      1985       1     226     307     429     427
CTETRA      1986       1     245     246     306     410
CTETRA      1987       1     718     717     322     485
CTETRA      1988       1     123     181     158     226
CTETRA      1989       1     247     519     445     446
CTETRA      1990       1     418     181     232     226
CTETRA      1991       1     717     322     485     321
CTETRA      1992       1     289     437     411     410
CTETRA      1993       1     259     299     438     247
CTETRA      1994       1     185     548     304     519
CTETRA      1995       1     408     308     303     259
CTETRA      1996       1     185     245     187     188
CTETRA      1997       1     310     462     278     463
CTETRA      1998       1     309     465     708     461
CTETRA      1999       1     290     242     113     243
CTETRA      2000       1     315     489     488     494
CTETRA      2001       1     787     492     486     788
CTETRA      2002       1     527     113     114     498
CTETRA      2003       1     315     491     490     496
CTETRA      2004       1     786     486     787     493
CTETRA      2005       1     113     242     499     528
CTETRA      2006       1     234     164     583     167
CTETRA      2007       1     115      88     113     114
CTETRA      2008       1     178     185     304     247
CTETRA      2009       1     446     518     444     245
CTETRA      2010       1     547     188     517     185
CTETRA      2011       1     308     305     259     408
CTETRA      2012       1     318      33      34     317
CTETRA      2013       1     718     323     485     322
CTETRA      2014       1      74      91      73      64
CTETRA      2015       1     175     303     300     285
CTETRA      2016       1     285     305     308     219
CTETRA      2017       1     303     248     300     472
CTETRA      2018       1     303     474     308     408
CTETRA      2019       1     275     505     293     504
CTETRA      2020       1     710      33      34     325
CTETRA      2021       1     189     318     317      33
CTETRA      2022       1     240     213     505     506
CTETRA      2023       1     275     534     240     505
CTETRA      2024       1     319     189     713     320
CTETRA      2025       1     162     595     157     594
CTETRA      2026       1     257     501     759     450
CTETRA      2027       1     139     202     449     140
CTETRA      2028       1     785     494     486     786
CTETRA      2029       1     786     493     494     486
CTETRA      2030       1     104     107     251     252
CTETRA      2031       1     255      47     150     254
CTETRA      2032       1     254     255     451     456
CTETRA      2033       1     202     243     290     449
CTETRA      2034       1      51     120      65      50
CTETRA      2035       1     140     139     448     449
CTETRA      2036       1     313     489     751     488
CTETRA      2037       1     451     202     449     139
CTETRA      2038       1     496     495     486     784
CTETRA      2039       1      82      84     201      88
CTETRA      2040       1     257     254     202     455
CTETRA      2041       1      84     258     257     530
CTETRA      2042       1     502     501     759     257
CTETRA      2043       1     274     240     275     563
CTETRA      2044       1      67     173     280     302
CTETRA      2045       1     122     138      11      15
CTETRA      2046       1      53      67     172      76
CTETRA      2047       1     290     500     758     483
CTETRA      2048       1     503     460     761     504
CTETRA      2049       1     293     459     505     401
CTETRA      2050       1     324     485     719     323
CTETRA      2051       1     135     219     236     244
CTETRA      2052       1     296     295     255     452
CTETRA      2053       1     296     457     402     452
CTETRA      2054       1     129     132     130     365
CTETRA      2055       1     290     113     483     481
CTETRA      2056       1     459     460     456     293
CTETRA      2057       1     539     160     253     540
CTETRA      2058       1     195     238     674     241
CTETRA      2059       1     149     123     294     253
CTETRA      2060       1     322      34     321      33
CTETRA      2061       1     312     211     513     542
CTETRA      2062       1     312     298     434     513
CTETRA      2063       1     325     720     324     485
CTETRA      2064       1     322     317     323      34
CTETRA      2065       1     508     537     213     294
CTETRA      2066       1     296     505     213     401
CTETRA      2067       1     189     317     322      33
CTETRA      2068       1      41     156     126     133
CTETRA      2069       1     284     453     404     454
CTETRA      2070       1     324     719     485     720
CTETRA      2071       1     508     766     424     765
CTETRA      2072       1     321     709     189      33
CTETRA      2073       1     213     426     421     424
CTETRA      2074       1     189     318      33     319
CTETRA      2075       1     114     113     527     242
CTETRA      2076       1     423     422     180     425
CTETRA      2077       1     160     541     312     540
CTETRA      2078       1     113     242     500     499
CTETRA      2079       1     325     720     485     794
CTETRA      2080       1     319     318      33      34
CTETRA      2081       1     113     499     500     483
CTETRA      2082       1     290     113     500     483
CTETRA      2083       1     448     140     449     476
CTETRA      2084       1     313     488     750     487
CTETRA      2085       1     140     449     476     243
CTETRA      2086       1     243     278     475     476
CTETRA      2087       1     495     785     486     784
CTETRA      2088       1     313     754     753     491
CTETRA      2089       1     283     753     313     754
CTETRA      2090       1     278     140     478     476
CTETRA      2091       1     113     243     480     481
CTETRA      2092       1     115     278     475     243
CTETRA      2093       1     315     701     491     496
CTETRA      2094       1     701     494     495     315
CTETRA      2095       1     315     489     494     495
CTETRA      2096       1     272     691     692     662
CTETRA      2097       1     317      33      34     322
CTETRA      2098       1     313     753     752     490
CTETRA      2099       1     106     291     209     397
CTETRA      2100       1     208     393     395     394
CTETRA      2101       1     262     345     263     328
CTETRA      2102       1     209     391     262     328
CTETRA      2103       1     117     696     281     667
CTETRA      2104       1     173     330     331     351
CTETRA      2105       1     272     664     663     693
CTETRA      2106       1     133     200     654     625
CTETRA      2107       1     250     362     337     364
CTETRA      2108       1     312     541     512     511
CTETRA      2109       1       9      10     230      17
CTETRA      2110       1     229     289     305     412
CTETRA      2111       1     190     582     167     553
CTETRA      2112       1      50     364     363     362
CTETRA      2113       1     190     553     167     524
CTETRA      2114       1     286     237     225     273
CTETRA      2115       1     132     128     655     656
CTETRA      2116       1     164     190     582     167
CTETRA      2117       1     129     656     685     686
CTETRA      2118       1     276     277     333     361
CTETRA      2119       1     225      73     252     220
CTETRA      2120       1     264     335     265     338
CTETRA      2121       1       2     631     602     601
CTETRA      2122       1     286     374     277     377
CTETRA      2123       1     276     252     333     376
CTETRA      2124       1     277     237     377     331
CTETRA      2125       1     173     277     331     237
CTETRA      2126       1     299     406     407     438
CTETRA      2127       1     173     302     237     331
CTETRA      2128       1     132     685     735     365
CTETRA      2129       1     259     439     438     407
CTETRA      2130       1     132     735     684     734
CTETRA      2131       1     148     567     566     596
CTETRA      2132       1     418     422     232     180
CTETRA      2133       1     228     404     419     420
CTETRA      2134       1     254     455     456     451
CTETRA      2135       1     225     111     286     273
CTETRA      2136       1     115     484     498     113
CTETRA      2137       1     290     113     242     500
CTETRA      2138       1     475     243     480     115
CTETRA      2139       1     278     243     140     476
CTETRA      2140       1      51     105     120     127
CTETRA      2141       1     243     481     476     480
CTETRA      2142       1     505     763     401     459
CTETRA      2143       1     323     324     485      34
CTETRA      2144       1     250     364     127      50
CTETRA      2145       1     125     132     133     126
CTETRA      2146       1     220     370     399     398
CTETRA      2147       1     292     702     260     703
CTETRA      2148       1     195     644     643     673
CTETRA      2149       1     250     107     105     337
CTETRA      2150       1     241     371     375     378
CTETRA      2151       1     128     657     627     656
CTETRA      2152       1     303     300     308     474
CTETRA      2153       1     213     507     508     424
CTETRA      2154       1     300     153     235     310
CTETRA      2155       1     262     328     327     345
CTETRA      2156       1     278     300     463     478
CTETRA      2157       1     160     569     540     539
CTETRA      2158       1     516     314     188     545
CTETRA      2159       1     265     343     339     338
CTETRA      2160       1     164     583     582     612
CTETRA      2161       1     249     167     554     525
CTETRA      2162       1     300     308     474     464
CTETRA      2163       1     165     704     612     641
CTETRA      2164       1     244     300     478     464
CTETRA      2165       1     285     236     219     308
CTETRA      2166       1     277     374     333     332
CTETRA      2167       1      82     201      45      86
CTETRA      2168       1     677     678     728     353
CTETRA      2169       1     155     192     190     167
CTETRA      2170       1     245     247     446     519
CTETRA      2171       1     460     503     257     254
CTETRA      2172       1     129     687     264     658
CTETRA      2173       1     210     599       1     600
CTETRA      2174       1     162     200     624     623
CTETRA      2175       1     304     548     578     549
CTETRA      2176       1     185     247     519     304
CTETRA      2177       1     287     132     684     359
CTETRA      2178       1     530     290     257      84
CTETRA      2179       1     253     537     538     508
CTETRA      2180       1     244     478     140     447
CTETRA      2181       1     139     284     447     453
CTETRA      2182       1     258     530     560     531
CTETRA      2183       1     507     764     765     424
CTETRA      2184       1     277     377     374     332
CTETRA      2185       1     118     224     225      64
CTETRA      2186       1     238     302     675     379
CTETRA      2187       1     302     675     379     676
CTETRA      2188       1     112     111     196     110
CTETRA      2189       1     195     644     673     674
CTETRA      2190       1     286     237     375     377
CTETRA      2191       1      93      97      98      95
CTETRA      2192       1     226     289     429     307
CTETRA      2193       1     729     353     728     678
CTETRA      2194       1     192     470     524     468
CTETRA      2195       1     206     385     389     382
CTETRA      2196       1     223     373     672     367
CTETRA      2197       1     273     111     196     225
CTETRA      2198       1     225     286     111     220
CTETRA      2199       1     251     715     252     107
CTETRA      2200       1     179     112     207     111
CTETRA      2201       1     368     111     386     273
CTETRA      2202       1     220     286     111     376
CTETRA      2203       1     286     376     277     374
CTETRA      2204       1     293     456     457     452
CTETRA      2205       1     213     421     401     424
CTETRA      2206       1     286     237     273     375
CTETRA      2207       1     383     386     111     110
CTETRA      2208       1     312     211     542     541
CTETRA      2209       1     290     501     500     530
CTETRA      2210       1     263     107     329     337
CTETRA      2211       1      71     204      70     262
CTETRA      2212       1     272     663     633     662
CTETRA      2213       1     267     268     691     690
CTETRA      2214       1     503     760     761     458
CTETRA      2215       1     197     302     241     237
CTETRA      2216       1     173     351     353     330
CTETRA      2217       1      52     361     360     363
CTETRA      2218       1     287     682     683     653
CTETRA      2219       1      51     127     120      50
CTETRA      2220       1      38      52     347     361
CTETRA      2221       1     361      52     251      38
CTETRA      2222       1     238     301     195     645
CTETRA      2223       1      80     651     650     680
CTETRA      2224       1     502     760     458     759
CTETRA      2225       1     163     200     133     625
CTETRA      2226       1     251     362      52     360
CTETRA      2227       1     501     758     759     450
CTETRA      2228       1     251     360      52     361
CTETRA      2229       1     702     387     721     791
CTETRA      2230       1     126     221      50     348
CTETRA      2231       1     525     192     524     468
CTETRA      2232       1     482     115     484     498
CTETRA      2233       1     439     259     246     305
CTETRA      2234       1     473     305     750     219
CTETRA      2235       1      38     346     332     361
CTETRA      2236       1     677     353     727     330
CTETRA      2237       1     251     361     333     360
CTETRA      2238       1     244     464     789     219
CTETRA      2239       1     114     309     708     497
CTETRA      2240       1     676     379     330     726
CTETRA      2241       1     185     304     548     577
CTETRA      2242       1     190     553     552     582
CTETRA      2243       1     375     273     111     368
CTETRA      2244       1     244     308     300     464
CTETRA      2245       1     111     220     399     207
CTETRA      2246       1     220     207     398     399
CTETRA      2247       1     185     147     145     576
CTETRA      2248       1     301     647     617     646
CTETRA      2249       1     292     385     110     384
CTETRA      2250       1     103     252     291     107
CTETRA      2251       1     136     231     138     137
CTETRA      2252       1      53     221      38      52
CTETRA      2253       1     179     111     207     220
CTETRA      2254       1      87      89      88     235
CTETRA      2255       1      85     239     586     557
CTETRA      2256       1     449     243     290     481
CTETRA      2257       1     383     368     111     386
CTETRA      2258       1     238     379     372     378
CTETRA      2259       1     291     220     207     398
CTETRA      2260       1     190     552     553     523
CTETRA      2261       1     174     640     279     641
CTETRA      2262       1     238     372     379     725
CTETRA      2263       1     671     367     722     721
CTETRA      2264       1     150     240     296     293
CTETRA      2265       1     235     310     309     278
CTETRA      2266       1     122     231      17      11
CTETRA      2267       1     188     576     546     575
CTETRA      2268       1     114     309     497     115
CTETRA      2269       1     257     503     502     532
CTETRA      2270       1      85     558      84     242
CTETRA      2271       1     125     132     126     130
CTETRA      2272       1     284     139     447     244
CTETRA      2273       1     139     295     284     453
CTETRA      2274       1     462     309     475     479
CTETRA      2275       1     213     537     508     507
CTETRA      2276       1     449     139     448     451
CTETRA      2277       1     295     404     284     453
CTETRA      2278       1      86     243     202     140
CTETRA      2279       1     213     294     296     421
CTETRA      2280       1     293     296     255     452
CTETRA      2281       1     645     102     616     301
CTETRA      2282       1     100     258     261      48
CTETRA      2283       1     309     310     465     462
CTETRA      2284       1     714     333     251     252
CTETRA      2285       1      55      37      29      28
CTETRA      2286       1     691     326     741     340
CTETRA      2287       1     247     521     445     520
CTETRA      2288       1     219     464     789     473
CTETRA      2289       1       4     147       6     603
CTETRA      2290       1     769     511     413     512
CTETRA      2291       1     114     706     555     707
CTETRA      2292       1     234     583     706     554
CTETRA      2293       1     215     522     551     552
CTETRA      2294       1     527     239     556     114
CTETRA      2295       1     283     219     244     789
CTETRA      2296       1     190     581     552     551
CTETRA      2297       1     145     576     147     605
CTETRA      2298       1     236     308     244     219
CTETRA      2299       1     268     339     340     342
CTETRA      2300       1     333     251     252     276
CTETRA      2301       1     692     396     743     742
CTETRA      2302       1     125     132     129     128
CTETRA      2303       1      77     650     620     649
CTETRA      2304       1     323     324      34     318
CTETRA      2305       1     309     278     462     475
CTETRA      2306       1     693     743     396     744
CTETRA      2307       1     578     177     608     607
CTETRA      2308       1      86     201     202      88
CTETRA      2309       1     168     184     182     183
CTETRA      2310       1     311     327     326     340
CTETRA      2311       1     212     186     544     573
CTETRA      2312       1     229     751     430     412
CTETRA      2313       1     309     278     475     115
CTETRA      2314       1     250     362     251     715
CTETRA      2315       1     296     421     417     402
CTETRA      2316       1     163     624     625     595
CTETRA      2317       1     200     624     623     653
CTETRA      2318       1     297     292     279     670
CTETRA      2319       1     171     609     579     608
CTETRA      2320       1     206     392     381     393
CTETRA      2321       1     764     424     507     401
CTETRA      2322       1     205     206     207     112
CTETRA      2323       1     170     609     639     610
CTETRA      2324       1      59     620     590     619
CTETRA      2325       1     200     623     652     653
CTETRA      2326       1      78     620     619     649
CTETRA      2327       1     261     561     560     590
CTETRA      2328       1     402     417     296     403
CTETRA      2329       1      59     591     590     620
CTETRA      2330       1     506     401     763     764
CTETRA      2331       1      67     280     193     197
CTETRA      2332       1     284     454     447     453
CTETRA      2333       1     261     590     560     589
CTETRA      2334       1     264     688     658     687
CTETRA      2335       1     214     630     629     659
CTETRA      2336       1     261     590     591     561
CTETRA      2337       1     165     174     279     641
CTETRA      2338       1     272     635     634     664
CTETRA      2339       1     146     635     605     634
CTETRA      2340       1     507     508     424     765
CTETRA      2341       1     162     594     623     624
CTETRA      2342       1     305     412     439     440
CTETRA      2343       1     295     453     403     404
CTETRA      2344       1     258     560     561     531
CTETRA      2345       1     318     324      34     319
CTETRA      2346       1     269     105     120      70
CTETRA      2347       1     147     576     575     605
CTETRA      2348       1     146     605     635     606
CTETRA      2349       1     185     576     577     547
CTETRA      2350       1     145     576     606     577
CTETRA      2351       1     129     686     687     657
CTETRA      2352       1     147     604     605     575
CTETRA      2353       1     523     470     469     781
CTETRA      2354       1       4     146     147     634
CTETRA      2355       1     245     517     518     444
CTETRA      2356       1     105     263     337     107
CTETRA      2357       1     417     294     296     232
CTETRA      2358       1     106     329     711     397
CTETRA      2359       1     545     314     515     516
CTETRA      2360       1     255     451     452     453
CTETRA      2361       1      82      83      48      84
CTETRA      2362       1      57     591     621     592
CTETRA      2363       1     274     562     591     592
CTETRA      2364       1     275     562     563     533
CTETRA      2365       1     145     577     607     578
CTETRA      2366       1     524     468     470     782
CTETRA      2367       1     146     606     636     607
CTETRA      2368       1     190     524     523     553
CTETRA      2369       1     150     294     232     296
CTETRA      2370       1     524     781     782     470
CTETRA      2371       1     145     577     606     607
CTETRA      2372       1     304     577     578     548
CTETRA      2373       1     271     638     637     667
CTETRA      2374       1     171     609     610     580
CTETRA      2375       1     692     396     742     326
CTETRA      2376       1     219     473     789     750
CTETRA      2377       1     712     107     711     291
CTETRA      2378       1      84     530     529     559
CTETRA      2379       1     690     342     741     740
CTETRA      2380       1     253     426     508     509
CTETRA      2381       1     157     594     564     593
CTETRA      2382       1     181     414     427     415
CTETRA      2383       1     298     413     431     181
CTETRA      2384       1     100     558     588     559
CTETRA      2385       1     101     617     618     588
CTETRA      2386       1      38      52     251      53
CTETRA      2387       1     187     217     306     246
CTETRA      2388       1     741     691     340     342
CTETRA      2389       1      12      17     218      11
CTETRA      2390       1     140     236     278     478
CTETRA      2391       1      92     435     514     515
CTETRA      2392       1     186     573     574     544
CTETRA      2393       1     270     169     177     271
CTETRA      2394       1     133     626     625     655
CTETRA      2395       1     314     245     517     188
CTETRA      2396       1     128     628     627     657
CTETRA      2397       1       4     632     603     602
CTETRA      2398       1     160     569     539     568
CTETRA      2399       1     214     630     659     660
CTETRA      2400       1     214     631     630     660
CTETRA      2401       1     267     660     661     631
CTETRA      2402       1     284     753     404     420
CTETRA      2403       1     694     744     396     395
CTETRA      2404       1     301     675     676     646
CTETRA      2405       1      49      59     101     193
CTETRA      2406       1       2     631     601     630
CTETRA      2407       1     166     706     705     584
CTETRA      2408       1     312     512     513     434
CTETRA      2409       1     272     311     692     691
CTETRA      2410       1     160     511     312     180
CTETRA      2411       1     115     482     480     479
CTETRA      2412       1     525     783     465     468
CTETRA      2413       1     301     616     646     617
CTETRA      2414       1     284     404     753     454
CTETRA      2415       1     166     216     584     705
CTETRA      2416       1     102     616     586     615
CTETRA      2417       1     286     374     369     376
CTETRA      2418       1     239     586     556     585
CTETRA      2419       1     299     472     406     467
CTETRA      2420       1     162     622     623     593
CTETRA      2421       1     498     484     482     756
CTETRA      2422       1     273     371     368     375
CTETRA      2423       1     270     119     665     664
CTETRA      2424       1     171     580     610     581
CTETRA      2425       1     498     755     756     482
CTETRA      2426       1     242     557     528     527
CTETRA      2427       1     190     580     581     551
CTETRA      2428       1     245     306     409     410
CTETRA      2429       1     143     551     550     580
CTETRA      2430       1     309     461     708     497
CTETRA      2431       1     177     609     608     638
CTETRA      2432       1     228     295     404     284
CTETRA      2433       1      10     298     312     211
CTETRA      2434       1     280     648      78     619
CTETRA      2435       1     124     122     138     233
CTETRA      2436       1     170     668     639     638
CTETRA      2437       1     413     312     298     434
CTETRA      2438       1     148     595     596     566
CTETRA      2439       1     185     145     577     576
CTETRA      2440       1     163     595     625     596
CTETRA      2441       1     522     780     469     405
CTETRA      2442       1      79     592     621     622
CTETRA      2443       1     114     556     527     526
CTETRA      2444       1     219     308     473     305
CTETRA      2445       1     192     469     470     467
CTETRA      2446       1     512     413     770     434
CTETRA      2447       1     159     597     598     568
CTETRA      2448       1      38     351     346     354
CTETRA      2449       1      43     627     597     626
CTETRA      2450       1     134     140     244     236
CTETRA      2451       1      39     569     598     599
CTETRA      2452       1     237     331     378     377
CTETRA      2453       1     174     641     612     611
CTETRA      2454       1     286     374     377     375
CTETRA      2455       1     143     155     215     190
CTETRA      2456       1     256     532     562     533
CTETRA      2457       1     153     175     155     248
CTETRA      2458       1     208     394     395     396
CTETRA      2459       1     291     398     209     397
CTETRA      2460       1     312     298     513     211
CTETRA      2461       1     259     408     305     439
CTETRA      2462       1     260     642     613     704
CTETRA      2463       1     100     587     588     558
CTETRA      2464       1     239     557     556     586
CTETRA      2465       1     102     585     615     586
CTETRA      2466       1     195     645     615     644
CTETRA      2467       1     297     699     698     388
CTETRA      2468       1     279     640     669     670
CTETRA      2469       1     297     384     388     385
CTETRA      2470       1     220     370     712     713
CTETRA      2471       1     161     158     180     160
CTETRA      2472       1     292     702     699     384
CTETRA      2473       1     698     748     388     749
CTETRA      2474       1     234     705     706     583
CTETRA      2475       1     134     136      47     138
CTETRA      2476       1     310     462     471     465
CTETRA      2477       1     124     148      36     123
CTETRA      2478       1     267     690     660     266
CTETRA      2479       1     569     570      39     160
CTETRA      2480       1     297     389     385     388
CTETRA      2481       1     260     671     642     703
CTETRA      2482       1     159     598     569     568
CTETRA      2483       1     149     538     161     253
CTETRA      2484       1     630       1     600     601
CTETRA      2485       1     113     481     480     484
CTETRA      2486       1     109     266     267     214
CTETRA      2487       1     232     418     417     422
CTETRA      2488       1     147     603     604     574
CTETRA      2489       1      35     626     597     596
CTETRA      2490       1     180     422     423     418
CTETRA      2491       1     102     616     587     586
CTETRA      2492       1     113     483     481     484
CTETRA      2493       1     434     413     431     298
CTETRA      2494       1     408     305     750     473
CTETRA      2495       1     684     287     683     133
CTETRA      2496       1     286     375     369     374
CTETRA      2497       1     499     483     484     757
CTETRA      2498       1     148     566     567     537
CTETRA      2499       1     240     535     564     565
CTETRA      2500       1     143     550     579     580
CTETRA      2501       1     132     734     684     359
CTETRA      2502       1     111     196     110     273
CTETRA      2503       1     215     522     405     521
CTETRA      2504       1     145     578     304     577
CTETRA      2505       1     266     660     659     689
CTETRA      2506       1     266     660     689     690
CTETRA      2507       1     195     645     644     674
CTETRA      2508       1     185     147     576     188
CTETRA      2509       1     238     645     674     675
CTETRA      2510       1     195     615     614     644
CTETRA      2511       1     177     638     608     637
CTETRA      2512       1     646     301     675     645
CTETRA      2513       1     517     409     245     314
CTETRA      2514       1     314     288     433     306
CTETRA      2515       1     185     245     518     519
CTETRA      2516       1       1     628     657     658
CTETRA      2517       1     214     658     659     629
CTETRA      2518       1     265     130     336     335
CTETRA      2519       1     226     415     416     419
CTETRA      2520       1     508     509     426     766
CTETRA      2521       1     260     642     704     703
CTETRA      2522       1     195     644     614     643
CTETRA      2523       1     247     446     445     442
CTETRA      2524       1     167     583     554     553
CTETRA      2525       1     241     302     378     237
CTETRA      2526       1     209     392     397     398
CTETRA      2527       1     245     519     446     518
CTETRA      2528       1     281     697     667     696
CTETRA      2529       1     260     613     642     643
CTETRA      2530       1     135     136     231     227
CTETRA      2531       1     244     477     464     478
CTETRA      2532       1      78      76      56      57
CTETRA      2533       1     473     308     219     464
CTETRA      2534       1     238     301     675     302
CTETRA      2535       1     410     246     289     437
CTETRA      2536       1     265     130     264     214
CTETRA      2537       1     444     517     409     245
CTETRA      2538       1     299     443     406     438
CTETRA      2539       1     132     130     365     366
CTETRA      2540       1     266     214     659     660
CTETRA      2541       1     305     308     473     408
CTETRA      2542       1     240     506     505     535
CTETRA      2543       1     192     523     470     469
CTETRA      2544       1     174     641     611     640
CTETRA      2545       1     164     581     611     582
CTETRA      2546       1     737     334     687     738
CTETRA      2547       1     171     609     580     579
CTETRA      2548       1     270     272     664     635
CTETRA      2549       1     132     133     655     128
CTETRA      2550       1     248     310     300     471
CTETRA      2551       1     192     249     153     310
CTETRA      2552       1     166     706     584     555
CTETRA      2553       1     192     465     310     466
CTETRA      2554       1     198      51     251     104
CTETRA      2555       1      51      52      53     251
CTETRA      2556       1     288     435     433     432
CTETRA      2557       1     715     252     107     713
CTETRA      2558       1     162     624     595     594
CTETRA      2559       1     337     127     344     263
CTETRA      2560       1     132     656     655     685
CTETRA      2561       1     253     294     508     426
CTETRA      2562       1     339     266     264     341
CTETRA      2563       1     133     684     654     683
CTETRA      2564       1     774     773     435     314
CTETRA      2565       1     157     240     564     565
CTETRA      2566       1     264     688     687     738
CTETRA      2567       1     264     738     334     338
CTETRA      2568       1     128     627     626     656
CTETRA      2569       1     133     655     625     654
CTETRA      2570       1     189     713     793     712
CTETRA      2571       1     126     222     221     356
CTETRA      2572       1     485     710      34     325
CTETRA      2573       1     260     671     703     702
CTETRA      2574       1     625     626     163     596
CTETRA      2575       1     200     625     624     654
CTETRA      2576       1     157     566     565     595
CTETRA      2577       1     253     149     537     294
CTETRA      2578       1     242     528     558     529
CTETRA      2579       1     672     373     722     367
CTETRA      2580       1     702     791     384     387
CTETRA      2581       1     205     206     208     393
CTETRA      2582       1     112     383     382     399
CTETRA      2583       1     292     703     670     702
CTETRA      2584       1     110     387     384     386
CTETRA      2585       1     165     670     703     641
CTETRA      2586       1     292     110     260     702
CTETRA      2587       1     303     408     407     474
CTETRA      2588       1     301     280     677     302
CTETRA      2589       1     216     613     705     704
CTETRA      2590       1     774     314     517     516
CTETRA      2591       1     245     437     246     410
CTETRA      2592       1      14      36     124      28
CTETRA      2593       1     210     572     571     601
CTETRA      2594       1     211     571     541     570
CTETRA      2595       1     127     336     364     337
CTETRA      2596       1     222     200     653     287
CTETRA      2597       1       1     599     628     629
CTETRA      2598       1     696     747     746     390
CTETRA      2599       1     180     161     253     123
CTETRA      2600       1     299     405     467     406
CTETRA      2601       1       1     629     628     658
CTETRA      2602       1     107     793     329     337
CTETRA      2603       1     511     413     512     312
CTETRA      2604       1     132     655     133     684
CTETRA      2605       1     413     425     180     511
CTETRA      2606       1     389     297     698     388
CTETRA      2607       1     110     385     386     384
CTETRA      2608       1     212     543     211     572
CTETRA      2609       1     540     160     253     511
CTETRA      2610       1     114     115     497     498
CTETRA      2611       1     110     260     702     671
CTETRA      2612       1     234     249     167     554
CTETRA      2613       1     697     747     390     748
CTETRA      2614       1     101     588     587     617
CTETRA      2615       1     151     154     153     235
CTETRA      2616       1     240     535     505     534
CTETRA      2617       1     232     403     417     419
CTETRA      2618       1     115     479     480     475
CTETRA      2619       1     139     451     453     448
CTETRA      2620       1     192     467     470     466
CTETRA      2621       1     503     761     460     458
CTETRA      2622       1     278     463     462     475
CTETRA      2623       1     294     421     426     422
CTETRA      2624       1     257     458     455     450
CTETRA      2625       1     114     497     708     526
CTETRA      2626       1     181     180     312     413
CTETRA      2627       1     139     295      47     233
CTETRA      2628       1     290     113     481     243
CTETRA      2629       1     538     253     149     537
CTETRA      2630       1     215     247     304     521
CTETRA      2631       1     101     301     617     616
CTETRA      2632       1     249     525     554     707
CTETRA      2633       1     253     508     294     537
CTETRA      2634       1     227     136     231     228
CTETRA      2635       1     284     244     283     135
CTETRA      2636       1     708     249     465     309
CTETRA      2637       1     276     333     277     376
CTETRA      2638       1     309     482     115     479
CTETRA      2639       1     227     752     283     753
CTETRA      2640       1     302     330     379     331
CTETRA      2641       1     113     527     242     528
CTETRA      2642       1     283     313     750     789
CTETRA      2643       1     204     209     208     262
CTETRA      2644       1     287     682     733     683
CTETRA      2645       1     312     540     541     511
CTETRA      2646       1     281     697     698     668
CTETRA      2647       1     299     406     443     405
CTETRA      2648       1     499     498     756     484
CTETRA      2649       1     514     436     513     771
CTETRA      2650       1     456     460     455     254
CTETRA      2651       1     503     458     502     760
CTETRA      2652       1     518     517     775     444
CTETRA      2653       1     160     211     312     541
CTETRA      2654       1     497     482     309     755
CTETRA      2655       1     693     694     744     396
CTETRA      2656       1     314     306     433     409
CTETRA      2657       1     461     465     708     783
CTETRA      2658       1      92     514     543     544
CTETRA      2659       1     314     433     288     435
CTETRA      2660       1     425     180     511     253
CTETRA      2661       1     186     515     544     545
CTETRA      2662       1     139     255     451     202
CTETRA      2663       1     242     500     499     529
CTETRA      2664       1      84     290     500     530
CTETRA      2665       1     450     758     290     501
CTETRA      2666       1     174     610     640     611
CTETRA      2667       1     653     222     682     652
CTETRA      2668       1      79     274     592     593
CTETRA      2669       1     284     454     753     754
CTETRA      2670       1     309     461     462     465
CTETRA      2671       1     247     442     443     438
CTETRA      2672       1     281     697     668     667
CTETRA      2673       1     746     380     117     696
CTETRA      2674       1     147     604     575     574
CTETRA      2675       1     570     160     211      39
CTETRA      2676       1     177     637     271     638
CTETRA      2677       1     129     686     685     365
CTETRA      2678       1     126     120      50      65
CTETRA      2679       1     685     686     736     365
CTETRA      2680       1     206     382     389     381
CTETRA      2681       1     210     570     211      39
CTETRA      2682       1     349     126     366     364
CTETRA      2683       1     686     334     687     737
CTETRA      2684       1     196     223     195     260
CTETRA      2685       1     514     772     435     436
CTETRA      2686       1     306     410     433     409
CTETRA      2687       1     702     671     721     387
CTETRA      2688       1     279     640     670     641
CTETRA      2689       1     247     445     519     520
CTETRA      2690       1     671     672     722     367
CTETRA      2691       1     188     547     517     546
CTETRA      2692       1       8      10      39     211
CTETRA      2693       1     425     768     253     511
CTETRA      2694       1      92     514     513     543
CTETRA      2695       1      92     314     435     515
CTETRA      2696       1     180     423     425     413
CTETRA      2697       1     160     312     511     540
CTETRA      2698       1     228     420     284     404
CTETRA      2699       1     253     540     510     539
CTETRA      2700       1     253     510     509     539
CTETRA      2701       1     253     510     767     509
CTETRA      2702       1     234     554     706     707
CTETRA      2703       1     251     360     714     715
CTETRA      2704       1     715     713     714     252
CTETRA      2705       1     180     418     423     414
CTETRA      2706       1     161     538     567     568
CTETRA      2707       1     525     708     249     465
CTETRA      2708       1     465     708     783     525
CTETRA      2709       1     181     298     427     431
CTETRA      2710       1     300     464     463     478
CTETRA      2711       1     189     320     319      33
CTETRA      2712       1     222     355     357     731
CTETRA      2713       1     309     479     462     461
CTETRA      2714       1     117     667     666     696
CTETRA      2715       1     525     468     524     782
CTETRA      2716       1     621      81     622     651
CTETRA      2717       1     683     733     359     734
CTETRA      2718       1     211     541     571     542
CTETRA      2719       1     264     338     334     335
CTETRA      2720       1     261     561     591     562
CTETRA      2721       1      92     288     314     186
CTETRA      2722       1     287     126     359     358
CTETRA      2723       1     251      38     276     361
CTETRA      2724       1      52     363     347     361
CTETRA      2725       1     124      47     233     138
CTETRA      2726       1     132     734     350     735
CTETRA      2727       1     172     355     354     356
CTETRA      2728       1     354     221     172     356
CTETRA      2729       1     210     600     570     599
CTETRA      2730       1     132     359     350     734
CTETRA      2731       1       8      40     210      39
CTETRA      2732       1     287     133     654     683
CTETRA      2733       1     201      47     254     256
CTETRA      2734       1     114     555     556     526
CTETRA      2735       1      81     652     623     622
CTETRA      2736       1     347      50      52     221
CTETRA      2737       1     222     730     680     352
CTETRA      2738       1     522     523     469     780
CTETRA      2739       1      77     621     650     651
CTETRA      2740       1      57     591     620     621
CTETRA      2741       1     519     777     445     446
CTETRA      2742       1     363     347      50      52
CTETRA      2743       1     161     539     538     568
CTETRA      2744       1     129     658     657     687
CTETRA      2745       1     265     335     336     343
CTETRA      2746       1     162     594     593     623
CTETRA      2747       1     357     222     681     682
CTETRA      2748       1     359     287     683     684
CTETRA      2749       1     314     288     306     186
CTETRA      2750       1      80     679     678     353
CTETRA      2751       1     201     256     254     258
CTETRA      2752       1     504     761     762     460
CTETRA      2753       1     227     284     420     753
CTETRA      2754       1     177     637     607     636
CTETRA      2755       1     666     270     665     636
CTETRA      2756       1     768     253     511     510
CTETRA      2757       1     223     671     367     672
CTETRA      2758       1     287     733     358     359
CTETRA      2759       1     253     767     510     768
CTETRA      2760       1     682     732     681     357
CTETRA      2761       1     443     299     405     247
CTETRA      2762       1     117     395     393     380
CTETRA      2763       1     115     498     482     497
CTETRA      2764       1     164     610     611     581
CTETRA      2765       1     170     279     639     668
CTETRA      2766       1     381     281     389     206
CTETRA      2767       1     314     245     188     306
CTETRA      2768       1     170     668     638     667
CTETRA      2769       1     119     666     665     695
CTETRA      2770       1     103     291     220     207
CTETRA      2771       1     208     391     393     394
CTETRA      2772       1     287     357     733     732
CTETRA      2773       1     209     398     207     392
CTETRA      2774       1     266     267     214     660
CTETRA      2775       1      80     680     679     352
CTETRA      2776       1     186     545     314     515
CTETRA      2777       1     515     516     314     773
CTETRA      2778       1     186     544     574     545
CTETRA      2779       1     464     308     219     244
CTETRA      2780       1     263     344     329     328
CTETRA      2781       1     229     430     429     412
CTETRA      2782       1     573     212     543     544
CTETRA      2783       1     652     200     653     222
CTETRA      2784       1     243     113      88     242
CTETRA      2785       1     517     314     188     516
CTETRA      2786       1     244     478     447     477
CTETRA      2787       1     293     504     505     459
CTETRA      2788       1     681     731     357     732
CTETRA      2789       1     150     295     296     232
CTETRA      2790       1     242     499     528     529
CTETRA      2791       1     272       5     268     267
CTETRA      2792       1     509     766     767     426
CTETRA      2793       1     254     255     202     451
CTETRA      2794       1     530      84     529     500
CTETRA      2795       1     263     337     329     344
CTETRA      2796       1     166     216     585     584
CTETRA      2797       1     532     503     533     256
CTETRA      2798       1     102     614     615     585
CTETRA      2799       1     253     509     508     538
CTETRA      2800       1     557     239     556     527
CTETRA      2801       1     173     677     330     353
CTETRA      2802       1     226     228     419     416
CTETRA      2803       1     273     110     386     223
CTETRA      2804       1     221     348     356     347
CTETRA      2805       1     222     355     731     730
CTETRA      2806       1     690     266     342     689
CTETRA      2807       1     342     689     740     690
CTETRA      2808       1     126     349     348     364
CTETRA      2809       1     223     367     386     368
CTETRA      2810       1     671     387     367     721
CTETRA      2811       1     264     339     338     265
CTETRA      2812       1     266     339     265     269
CTETRA      2813       1       4     604     603     633
CTETRA      2814       1     214     659     264     266
CTETRA      2815       1     267     690     691     661
CTETRA      2816       1     296     402     457     401
CTETRA      2817       1     691     690     342     741
CTETRA      2818       1     157     594     565     564
CTETRA      2819       1     170     609     638     639
CTETRA      2820       1     264     341     738     338
CTETRA      2821       1     309     475     479     115
CTETRA      2822       1     130     335     365     366
CTETRA      2823       1     189     712     317     318
CTETRA      2824       1     673     724     241     674
CTETRA      2825       1     262     327     328     391
CTETRA      2826       1     185     577     548     547
CTETRA      2827       1     167     554     524     553
CTETRA      2828       1     238     675     674     725
CTETRA      2829       1     123     233     150     232
CTETRA      2830       1     238     645     195     674
CTETRA      2831       1     675     676     726     379
CTETRA      2832       1     215     522     523     469
CTETRA      2833       1     517     775     444     409
CTETRA      2834       1     190     581     582     552
CTETRA      2835       1     522     521     779     405
CTETRA      2836       1     522     780     405     779
CTETRA      2837       1     311     394     326     327
CTETRA      2838       1     247     304     520     519
CTETRA      2839       1     776     518     444     446
CTETRA      2840       1     304     521     520     550
CTETRA      2841       1     437     438     246     439
CTETRA      2842       1     245     444     446     441
CTETRA      2843       1     521     520     778     445
CTETRA      2844       1     174     610     639     640
CTETRA      2845       1     213     506     536     507
CTETRA      2846       1     213     401     506     507
CTETRA      2847       1     213     536     537     507
CTETRA      2848       1     472     248     471     466
CTETRA      2849       1     507     401     506     764
CTETRA      2850       1     406     472     299     407
CTETRA      2851       1     402     401     296     421
CTETRA      2852       1     132     350     359     349
CTETRA      2853       1       4     632     602     631
CTETRA      2854       1     506     505     763     401
CTETRA      2855       1     314     409     435     774
CTETRA      2856       1     245     441     442     437
CTETRA      2857       1     188     186     574     545
CTETRA      2858       1     304     548     549     519
CTETRA      2859       1      78     619     648     649
CTETRA      2860       1     199     251     252     104
CTETRA      2861       1     290     483     758     450
CTETRA      2862       1     309     461     497     755
CTETRA      2863       1     304     579     549     578
CTETRA      2864       1     215     521     551     522
CTETRA      2865       1     189     316     317     711
CTETRA      2866       1     271     666     637     636
CTETRA      2867       1     242     290     500      84
CTETRA      2868       1     699     384     791     749
CTETRA      2869       1     467     192     248     466
CTETRA      2870       1     270     635     665     636
CTETRA      2871       1     201     258      84      48
CTETRA      2872       1     146     635     636     606
CTETRA      2873       1     254     503     533     504
CTETRA      2874       1      84     559     258     530
CTETRA      2875       1     288     435     432     436
CTETRA      2876       1     202     243     449     140
CTETRA      2877       1     257     290     450     202
CTETRA      2878       1     275     504     533     534
CTETRA      2879       1     148     537     567     538
CTETRA      2880       1     149     536     566     537
CTETRA      2881       1     240     536     535     565
CTETRA      2882       1     401     293     296     505
CTETRA      2883       1      79     593     592     622
CTETRA      2884       1     180     423     413     414
CTETRA      2885       1     511     413     425     769
CTETRA      2886       1      52     363     360     362
CTETRA      2887       1     253     426     509     767
CTETRA      2888       1     513     771     436     434
CTETRA      2889       1      92     436     513     514
CTETRA      2890       1     181     413     431     414
CTETRA      2891       1      59     618     619     589
CTETRA      2892       1     290     449     450     202
CTETRA      2893       1     127     336     337     344
CTETRA      2894       1     298     436     431     434
CTETRA      2895       1     481     449     450     290
CTETRA      2896       1     274     592     593     563
CTETRA      2897       1     294     232     417     422
CTETRA      2898       1     309     755     479     461
CTETRA      2899       1     258     532     531     561
CTETRA      2900       1      77     650     621     620
CTETRA      2901       1     708     783     792     461
CTETRA      2902       1     311     692     326     396
CTETRA      2903       1     188     575     546     545
CTETRA      2904       1      33     709     189     320
CTETRA      2905       1     298     431     436     432
CTETRA      2906       1     289     429     428     411
CTETRA      2907       1     497     792     755     461
CTETRA      2908       1     116     163      41      37
CTETRA      2909       1     272     663     634     633
CTETRA      2910       1     679     352     730     729
CTETRA      2911       1     271     637     666     667
CTETRA      2912       1     293     401     457     459
CTETRA      2913       1     511     253     180     160
CTETRA      2914       1     272     692     663     662
CTETRA      2915       1     266     269     268     339
CTETRA      2916       1     237     378     375     377
CTETRA      2917       1     185     519     518     548
CTETRA      2918       1     634     146     147     605
CTETRA      2919       1       8     212       6       9
CTETRA      2920       1      58     275     150      47
CTETRA      2921       1      46      48     261     256
CTETRA      2922       1     272     664     634     663
CTETRA      2923       1     260     613     643     614
CTETRA      2924       1     209     391     328     397
CTETRA      2925       1       7       9      12      17
CTETRA      2926       1     266     267     690     268
CTETRA      2927       1     472     248     300     471
CTETRA      2928       1     708     497     461     792
CTETRA      2929       1     100     589     559     588
CTETRA      2930       1     166     555     584     585
CTETRA      2931       1     437     246     289     439
CTETRA      2932       1     276     286     252     376
CTETRA      2933       1     314     245     306     409
CTETRA      2934       1     280     648     647     677
CTETRA      2935       1     221     347      50     348
CTETRA      2936       1      53      38     276     251
CTETRA      2937       1     253     539     509     538
CTETRA      2938       1     200     624     653     654
CTETRA      2939       1     307     428     427     432
CTETRA      2940       1     280     619     618     648
CTETRA      2941       1     518     776     444     775
CTETRA      2942       1     175     218     137      13
CTETRA      2943       1     518     519     446     776
CTETRA      2944       1     519     520     445     777
CTETRA      2945       1     304     519     549     520
CTETRA      2946       1     291     220     398     712
CTETRA      2947       1     305     440     439     408
CTETRA      2948       1     298     431     432     427
CTETRA      2949       1     181     431     427     414
CTETRA      2950       1      67     237     224     277
CTETRA      2951       1       2       1     214     630
CTETRA      2952       1     578     143     579     608
CTETRA      2953       1     300     463     474     471
CTETRA      2954       1      81     651      80     222
CTETRA      2955       1     100     261     560     589
CTETRA      2956       1     517     185     518     547
CTETRA      2957       1     519     776     777     446
CTETRA      2958       1     257     460     455     458
CTETRA      2959       1     254     460     455     257
CTETRA      2960       1     504     505     459     762
CTETRA      2961       1     148     538     149     537
CTETRA      2962       1     209     391     397     392
CTETRA      2963       1     240     534     563     564
CTETRA      2964       1     304     579     550     549
CTETRA      2965       1     207     399     382     392
CTETRA      2966       1      43     626     128     627
CTETRA      2967       1     294     421     422     417
CTETRA      2968       1     240     506     536     213
CTETRA      2969       1     745     380     117     746
CTETRA      2970       1     291     400     711     712
CTETRA      2971       1     293     460     456     254
CTETRA      2972       1     275     504     534     505
CTETRA      2973       1     288     306     307     428
CTETRA      2974       1     458     503     257     460
CTETRA      2975       1      84     242     290     243
CTETRA      2976       1     113     484     499     483
CTETRA      2977       1     503     504     254     460
CTETRA      2978       1     100     589     560     559
CTETRA      2979       1     113     499     484     498
CTETRA      2980       1      99     194     118     197
CTETRA      2981       1     278     476     478     475
CTETRA      2982       1     291     252     712     107
CTETRA      2983       1     148     161     538     567
CTETRA      2984       1     121     231     230      17
CTETRA      2985       1      80     172     222     352
CTETRA      2986       1      78     649     648     678
CTETRA      2987       1     173     353     678     677
CTETRA      2988       1     677     353     728     727
CTETRA      2989       1     302     330     677     676
CTETRA      2990       1     503     257     256     532
CTETRA      2991       1      80     351     173     172
CTETRA      2992       1     513     771     434     770
CTETRA      2993       1     102     195     615     614
CTETRA      2994       1     301     302     676     675
CTETRA      2995       1     301     646     676     647
CTETRA      2996       1     102     301     101     616
CTETRA      2997       1     270     204     119     272
CTETRA      2998       1     709     710      33     321
CTETRA      2999       1     517     775     409     774
CTETRA      3000       1     402     403     296     452
CTETRA      3001       1     280     301     647     618
CTETRA      3002       1     119     694     693     396
CTETRA      3003       1     311     396     693     692
CTETRA      3004       1     252     220     291     712
CTETRA      3005       1     212       6       9     186
CTETRA      3006       1     103     291     106     107
CTETRA      3007       1     773     516     314     774
CTETRA      3008       1     119     272     311     693
CTETRA      3009       1     119     311     396     693
CTETRA      3010       1     311     326     692     691
CTETRA      3011       1     307     427     428     429
CTETRA      3012       1     270     271     191     169
CTETRA      3013       1     267     661     632     631
CTETRA      3014       1     253     123     294     180
CTETRA      3015       1     267     662     661     691
CTETRA      3016       1     211     572     543     542
CTETRA      3017       1     342     691     340     268
CTETRA      3018       1     267     662     632     661
CTETRA      3019       1     165     234     612     705
CTETRA      3020       1     178     187     246     217
CTETRA      3021       1     113     243     115     480
CTETRA      3022       1     165     703     704     641
CTETRA      3023       1     535     240     506     536
CTETRA      3024       1      43     128     628     627
CTETRA      3025       1     266     659     688     689
CTETRA      3026       1     695     694     395     745
CTETRA      3027       1     309     115     482     497
CTETRA      3028       1       6     602     603     573
CTETRA      3029       1     114     555     526     707
CTETRA      3030       1     396     208     311     119
CTETRA      3031       1     222     356     357     355
CTETRA      3032       1     132     365     735     350
CTETRA      3033       1     354     172      38     351
CTETRA      3034       1     222     651     681     652
CTETRA      3035       1     247     405     521     215
CTETRA      3036       1     119     395     695     694
CTETRA      3037       1     126     358     356     348
CTETRA      3038       1      38     354     346     347
CTETRA      3039       1     247     520     304     521
CTETRA      3040       1     311     394     396     326
CTETRA      3041       1     445     247     405     521
CTETRA      3042       1     281     390     697     696
CTETRA      3043       1      84     529     558     559
CTETRA      3044       1     117     695     696     666
CTETRA      3045       1     117     206     381     393
CTETRA      3046       1     693     396     743     692
CTETRA      3047       1     390     381     281     389
CTETRA      3048       1     688     266     689     341
CTETRA      3049       1     691     326     742     741
CTETRA      3050       1     505     293     296     240
CTETRA      3051       1     272     692     693     663
CTETRA      3052       1     268     327     340     345
CTETRA      3053       1     215     521     550     551
CTETRA      3054       1     277     374     376     333
CTETRA      3055       1     222     681     680     731
CTETRA      3056       1     156     222     221     126
CTETRA      3057       1     177     608     607     637
CTETRA      3058       1      50     364     348     363
CTETRA      3059       1     192     470     523     524
CTETRA      3060       1     257     290     501     450
CTETRA      3061       1      76      80     173     172
CTETRA      3062       1     247     443     445     405
CTETRA      3063       1     222     681     731     357
CTETRA      3064       1      88     239     242     114
CTETRA      3065       1     257     531     501     530
CTETRA      3066       1     460     504     293     459
CTETRA      3067       1      80     351     352     353
CTETRA      3068       1     679     353     352     729
CTETRA      3069       1     188     516     546     517
CTETRA      3070       1     253     768     425     767
CTETRA      3071       1     135     282     227     231
CTETRA      3072       1     312     541     542     512
CTETRA      3073       1     134      87      86     236
CTETRA      3074       1     189     713     712     318
CTETRA      3075       1     132     685     684     735
CTETRA      3076       1      56      66      53      67
CTETRA      3077       1     253     294     422     180
CTETRA      3078       1     228     419     416     420
CTETRA      3079       1     328     209     106     262
CTETRA      3080       1     197     195     241     301
CTETRA      3081       1     227     305     283     751
CTETRA      3082       1     303     472     474     407
CTETRA      3083       1      58      47      46     275
CTETRA      3084       1     759     257     458     502
CTETRA      3085       1     302     331     379     378
CTETRA      3086       1     253     425     422     426
CTETRA      3087       1     257     532     502     531
CTETRA      3088       1     675     725     379     726
CTETRA      3089       1     251     252     715     714
CTETRA      3090       1     505     762     763     459
CTETRA      3091       1     268     340     339     345
CTETRA      3092       1     254     504     293     460
CTETRA      3093       1      67      38     173     277
CTETRA      3094       1     202     449     450     455
CTETRA      3095       1     202     455     451     449
CTETRA      3096       1     680     730     679     352
CTETRA      3097       1     258     560     530     559
CTETRA      3098       1     450     257     458     759
CTETRA      3099       1     113     115     484     480
CTETRA      3100       1      80     678     679     649
CTETRA      3101       1      80     680     650     679
CTETRA      3102       1     172     352     351     354
CTETRA      3103       1     409     774     314     517
CTETRA      3104       1       6     188     186     574
CTETRA      3105       1     188     575     545     574
CTETRA      3106       1     545     516     546     188
CTETRA      3107       1      78     677     678     648
CTETRA      3108       1     121     227     229     231
CTETRA      3109       1       4     631     267     632
CTETRA      3110       1      92     543     513     542
CTETRA      3111       1     185     547     548     518
CTETRA      3112       1     241     371     372     373
CTETRA      3113       1     259     407     408     439
CTETRA      3114       1     243     481     449     476
CTETRA      3115       1     110     671     702     387
CTETRA      3116       1      70     262     269     263
CTETRA      3117       1      50     347     363     348
CTETRA      3118       1     181     298     307     427
CTETRA      3119       1     127     344     269     336
CTETRA      3120       1      92     288     298     436
CTETRA      3121       1     289     411     428     410
CTETRA      3122       1     228     227     284     420
CTETRA      3123       1     246     442     247     438
CTETRA      3124       1     287     126     132     359
CTETRA      3125       1     188     576     547     546
CTETRA      3126       1      80     679     650     649
CTETRA      3127       1     314     773     435     515
CTETRA      3128       1     514     515     435     772
CTETRA      3129       1     246     438     437     442
CTETRA      3130       1     254     257     256     503
CTETRA      3131       1     245     441     410     409
CTETRA      3132       1     304     550     520     549
CTETRA      3133       1     295     453     452     403
CTETRA      3134       1     139     448     453     447
CTETRA      3135       1     247     445     443     442
CTETRA      3136       1     223     371     367     368
CTETRA      3137       1     129     657     656     686
CTETRA      3138       1     226     415     429     416
CTETRA      3139       1     227     416     752     420
CTETRA      3140       1     342     341     739     689
CTETRA      3141       1     269     336     344     343
CTETRA      3142       1     692     742     691     326
CTETRA      3143       1     269     262     345     263
CTETRA      3144       1     265     335     343     338
CTETRA      3145       1     212      92      10     211
CTETRA      3146       1     132     350     349     366
CTETRA      3147       1     130     336     335     366
CTETRA      3148       1     263     345     344     328
CTETRA      3149       1     130     365     335     334
CTETRA      3150       1      39     570     569     599
CTETRA      3151       1     214     130     264     129
CTETRA      3152       1     264     659     658     688
CTETRA      3153       1     129     656     132     685
CTETRA      3154       1     127     120      50     126
CTETRA      3155       1     253     767     425     426
CTETRA      3156       1     539     568     161     160
CTETRA      3157       1     128     656     626     655
CTETRA      3158       1     287     222     356     357
CTETRA      3159       1     223     260     110     671
CTETRA      3160       1     300     464     474     463
CTETRA      3161       1     673     723     672     373
CTETRA      3162       1     226     427     429     415
CTETRA      3163       1     223     241     371     273
CTETRA      3164       1     223     673     672     373
CTETRA      3165       1     166     585     556     555
CTETRA      3166       1     260     642     672     643
CTETRA      3167       1     702     699     384     791
CTETRA      3168       1     110     385     383     386
CTETRA      3169       1     677     330     727     676
CTETRA      3170       1     311     691     340     326
CTETRA      3171       1     277     332     331     377
CTETRA      3172       1     267     662     633     632
CTETRA      3173       1     100     588     101     589
CTETRA      3174       1     195     672     673     643
CTETRA      3175       1     192     215     190     523
CTETRA      3176       1     685     735     365     736
CTETRA      3177       1     176     169     177     270
CTETRA      3178       1     132     350     366     365
CTETRA      3179       1     103     209     106     291
$*
$* PROPERTY CARDS
$*
$*  NX Property: PSOLID1
PSOLID         1       1       0                           SMECH
$*
$* MATERIAL CARDS
$*
$*  NX Material: Aluminum_6061
MAT1           11.0005+7        0.3300002.5368-41.2203-5
MATT1          1       1               2               3
TABLEM1        1                                                        +
+        68.00001.0005+7 69.99801.0005+7 75.00201.0005+7100.00409.9046+6+
+       125.00609.9046+6150.00809.8046+6174.99209.7045+6199.99409.6045+6+
+       224.99609.5045+6249.99809.4044+6275.00009.3043+6300.00209.2042+6+
+       325.00409.1043+6350.00608.9042+6375.00808.8041+6399.99208.6041+6+
+       424.99408.5040+6449.99608.3038+6474.99808.1038+6500.00007.9037+6+
+       525.00207.7035+6550.00407.5035+6575.00607.3034+6600.00807.1034+6+
+       624.99206.9032+6649.99406.7031+6674.99606.4030+6699.99806.2028+6+
+       725.00006.0028+6750.00205.7026+6775.00405.5026+6800.00605.2024+6+
+           ENDT
TABLEM1        2                                                        +
+        68.00000.330000 69.99800.330000    ENDT
TABLEM1        3                                                        +
+        68.00001.2433-5199.99401.2880-5224.99601.2970-5249.99801.3060-5+
+       275.00001.3150-5300.00201.3240-5325.00401.3330-5350.00601.3410-5+
+       375.00801.3500-5399.99201.3580-5424.99401.3660-5449.99601.3740-5+
+       474.99801.3820-5500.00001.3890-5525.00201.3970-5550.00401.4040-5+
+       575.00601.4110-5600.00801.4180-5    ENDT
$*
$* LOAD AND CONSTRAINT CARDS
$*
$*  NX Load and Constraint: Fixed(1)
SPC            1     316  123456  0.0000
SPC            1     317  123456  0.0000
SPC            1     318  123456  0.0000
SPC            1     319  123456  0.0000
SPC            1     320  123456  0.0000
SPC            1     321  123456  0.0000
SPC            1     322  123456  0.0000
SPC            1     323  123456  0.0000
SPC            1     324  123456  0.0000
SPC            1     325  123456  0.0000
SPC            1     487  123456  0.0000
SPC            1     488  123456  0.0000
SPC            1     489  123456  0.0000
SPC            1     490  123456  0.0000
SPC            1     491  123456  0.0000
SPC            1     492  123456  0.0000
SPC            1     493  123456  0.0000
SPC            1     494  123456  0.0000
SPC            1     495  123456  0.0000
SPC            1     496  123456  0.0000
SPC            1     700  123456  0.0000
SPC            1     701  123456  0.0000
SPC            1     709  123456  0.0000
SPC            1     710  123456  0.0000
SPC            1     711  123456  0.0000
SPC            1     712  123456  0.0000
SPC            1     713  123456  0.0000
SPC            1     714  123456  0.0000
SPC            1     715  123456  0.0000
SPC            1     716  123456  0.0000
SPC            1     717  123456  0.0000
SPC            1     718  123456  0.0000
SPC            1     719  123456  0.0000
SPC            1     720  123456  0.0000
SPC            1     750  123456  0.0000
SPC            1     751  123456  0.0000
SPC            1     752  123456  0.0000
SPC            1     753  123456  0.0000
SPC            1     754  123456  0.0000
SPC            1     784  123456  0.0000
SPC            1     785  123456  0.0000
SPC            1     786  123456  0.0000
SPC            1     787  123456  0.0000
SPC            1     788  123456  0.0000
SPC            1     789  123456  0.0000
SPC            1     790  123456  0.0000
SPC            1     793  123456  0.0000
SPC            1     794  123456  0.0000
$*  NX Load and Constraint: Force(1)
FORCE          2     326       00.217897  0.00001.000000  0.0000
FORCE          2     327       00.187903  0.00001.000000  0.0000
FORCE          2     328       00.155116  0.00001.000000  0.0000
FORCE          2     329       00.100386  0.00001.000000  0.0000
FORCE          2     330       00.216172  0.00001.000000  0.0000
FORCE          2     331       00.226887  0.00001.000000  0.0000
FORCE          2     332       00.132761  0.00001.000000  0.0000
FORCE          2     333       00.098102  0.00001.000000  0.0000
FORCE          2     334       00.184358  0.00001.000000  0.0000
FORCE          2     335       00.179373  0.00001.000000  0.0000
FORCE          2     336       00.181189  0.00001.000000  0.0000
FORCE          2     337       00.140605  0.00001.000000  0.0000
FORCE          2     338       00.176579  0.00001.000000  0.0000
FORCE          2     339       00.154705  0.00001.000000  0.0000
FORCE          2     340       00.211818  0.00001.000000  0.0000
FORCE          2     341       00.120517  0.00001.000000  0.0000
FORCE          2     342       00.163387  0.00001.000000  0.0000
FORCE          2     343       00.166859  0.00001.000000  0.0000
FORCE          2     344       00.152765  0.00001.000000  0.0000
FORCE          2     345       00.168833  0.00001.000000  0.0000
FORCE          2     346       00.169259  0.00001.000000  0.0000
FORCE          2     347       00.151219  0.00001.000000  0.0000
FORCE          2     348       00.167560  0.00001.000000  0.0000
FORCE          2     349       00.171069  0.00001.000000  0.0000
FORCE          2     350       00.176324  0.00001.000000  0.0000
FORCE          2     351       00.196995  0.00001.000000  0.0000
FORCE          2     352       00.188129  0.00001.000000  0.0000
FORCE          2     353       00.174810  0.00001.000000  0.0000
FORCE          2     354       00.175972  0.00001.000000  0.0000
FORCE          2     355       00.186928  0.00001.000000  0.0000
FORCE          2     356       00.172161  0.00001.000000  0.0000
FORCE          2     357       00.185243  0.00001.000000  0.0000
FORCE          2     358       00.182286  0.00001.000000  0.0000
FORCE          2     359       00.133699  0.00001.000000  0.0000
FORCE          2     360       00.070913  0.00001.000000  0.0000
FORCE          2     361       00.121624  0.00001.000000  0.0000
FORCE          2     362       00.076491  0.00001.000000  0.0000
FORCE          2     363       00.121366  0.00001.000000  0.0000
FORCE          2     364       00.200401  0.00001.000000  0.0000
FORCE          2     365       00.190890  0.00001.000000  0.0000
FORCE          2     366       00.189670  0.00001.000000  0.0000
FORCE          2     367       00.237304  0.00001.000000  0.0000
FORCE          2     368       00.188070  0.00001.000000  0.0000
FORCE          2     369       00.164163  0.00001.000000  0.0000
FORCE          2     370       00.077913  0.00001.000000  0.0000
FORCE          2     371       00.191641  0.00001.000000  0.0000
FORCE          2     372       00.199223  0.00001.000000  0.0000
FORCE          2     373       00.189740  0.00001.000000  0.0000
FORCE          2     374       00.106898  0.00001.000000  0.0000
FORCE          2     375       00.146775  0.00001.000000  0.0000
FORCE          2     376       00.064767  0.00001.000000  0.0000
FORCE          2     377       00.101617  0.00001.000000  0.0000
FORCE          2     378       00.172451  0.00001.000000  0.0000
FORCE          2     379       00.220387  0.00001.000000  0.0000
FORCE          2     380       00.201755  0.00001.000000  0.0000
FORCE          2     381       00.202049  0.00001.000000  0.0000
FORCE          2     382       00.180220  0.00001.000000  0.0000
FORCE          2     383       00.168009  0.00001.000000  0.0000
FORCE          2     384       00.132518  0.00001.000000  0.0000
FORCE          2     385       00.145124  0.00001.000000  0.0000
FORCE          2     386       00.158578  0.00001.000000  0.0000
FORCE          2     387       00.121321  0.00001.000000  0.0000
FORCE          2     388       00.117394  0.00001.000000  0.0000
FORCE          2     389       00.179405  0.00001.000000  0.0000
FORCE          2     390       00.189200  0.00001.000000  0.0000
FORCE          2     391       00.191385  0.00001.000000  0.0000
FORCE          2     392       00.223236  0.00001.000000  0.0000
FORCE          2     393       00.209232  0.00001.000000  0.0000
FORCE          2     394       00.194972  0.00001.000000  0.0000
FORCE          2     395       00.199511  0.00001.000000  0.0000
FORCE          2     396       00.180462  0.00001.000000  0.0000
FORCE          2     397       00.134096  0.00001.000000  0.0000
FORCE          2     398       00.085213  0.00001.000000  0.0000
FORCE          2     399       00.147643  0.00001.000000  0.0000
FORCE          2     400       00.025210  0.00001.000000  0.0000
FORCE          2     711       00.034528  0.00001.000000  0.0000
FORCE          2     712       00.028428  0.00001.000000  0.0000
FORCE          2     713       00.036570  0.00001.000000  0.0000
FORCE          2     714       00.024993  0.00001.000000  0.0000
FORCE          2     715       00.041502  0.00001.000000  0.0000
FORCE          2     721       00.089521  0.00001.000000  0.0000
FORCE          2     722       00.099885  0.00001.000000  0.0000
FORCE          2     723       00.049376  0.00001.000000  0.0000
FORCE          2     724       00.091559  0.00001.000000  0.0000
FORCE          2     725       00.107274  0.00001.000000  0.0000
FORCE          2     726       00.109358  0.00001.000000  0.0000
FORCE          2     727       00.091443  0.00001.000000  0.0000
FORCE          2     728       00.046926  0.00001.000000  0.0000
FORCE          2     729       00.085930  0.00001.000000  0.0000
FORCE          2     730       00.096218  0.00001.000000  0.0000
FORCE          2     731       00.088971  0.00001.000000  0.0000
FORCE          2     732       00.053018  0.00001.000000  0.0000
FORCE          2     733       00.129509  0.00001.000000  0.0000
FORCE          2     734       00.088497  0.00001.000000  0.0000
FORCE          2     735       00.100040  0.00001.000000  0.0000
FORCE          2     736       00.091330  0.00001.000000  0.0000
FORCE          2     737       00.052691  0.00001.000000  0.0000
FORCE          2     738       00.121362  0.00001.000000  0.0000
FORCE          2     739       00.070188  0.00001.000000  0.0000
FORCE          2     740       00.048523  0.00001.000000  0.0000
FORCE          2     741       00.152445  0.00001.000000  0.0000
FORCE          2     742       00.097048  0.00001.000000  0.0000
FORCE          2     743       00.049198  0.00001.000000  0.0000
FORCE          2     744       00.089618  0.00001.000000  0.0000
FORCE          2     745       00.100780  0.00001.000000  0.0000
FORCE          2     746       00.091794  0.00001.000000  0.0000
FORCE          2     747       00.052864  0.00001.000000  0.0000
FORCE          2     748       00.122685  0.00001.000000  0.0000
FORCE          2     749       00.074280  0.00001.000000  0.0000
FORCE          2     791       00.072428  0.00001.000000  0.0000
FORCE          2     793       00.032516  0.00001.000000  0.0000
ENDDATA 55f6f7a4
