$*$$$$$$$$$$$$$$$$$$$$$$$$$$$$$$$$$$$$$$$$$$$$$$$$$$$$$$$$$$$$$$$$$
$*
$*                    NX v8.5.1.3 TRANSLATOR
$*                    FOR NX NASTRAN VERSION 8.5
$*
$*             FEM FILE: \\prism.nas.gatech.edu\jrevis3\vlab\desktop\4041 Lab\Final Project\NX Parts\Gear_new_fem1.fem
$*             SIM FILE: \\prism.nas.gatech.edu\jrevis3\vlab\desktop\4041 Lab\Final Project\NX Parts\Gear_new_sim1.sim
$*        ANALYSIS TYPE: Structural
$*        SOLUTION NAME: Solution 1
$*        SOLUTION TYPE: SOL 101 Linear Statics - Global Constraints
$*
$*    SOLVER INPUT FILE: gear_new_sim1-solution_1.dat
$*        CREATION DATE: 15-Apr-2014
$*        CREATION TIME: 10:24:00
$*             HOSTNAME: me7vlab061e
$*      NASTRAN LICENSE: Desktop Bundle
$*
$*                UNITS: Inch (pound f)
$*                      ... LENGTH : inch
$*                      ... TIME   : sec
$*                      ... MASS   : lbf-sec**2/in
$*                      ... TEMPERATURE : deg Fahrenheit
$*                      ... FORCE  : pound (lbf)
$*                      ... THERMAL ENERGY : lbf-in
$*
$* IMPORTANT NOTE:
$*     This banner was generated by NX and altering this information
$*     may compromise the NX post processing of results.
$*
$*$$$$$$$$$$$$$$$$$$$$$$$$$$$$$$$$$$$$$$$$$$$$$$$$$$$$$$$$$$$$$$$$$
$*
$*$$$$$$$$$$$$$$$$$$$$$$$$$$$$$$$$$$$
$*
$* NASTRAN
$*
$*$$$$$$$$$$$$$$$$$$$$$$$$$$$$$$$$$$$
$*
NASTRAN ELEMITER=YES
NASTRAN ITER=YES
$*
$*$$$$$$$$$$$$$$$$$$$$$$$$$$$$$$$$$$$
$*
$* FILE MANAGEMENT
$*
$*$$$$$$$$$$$$$$$$$$$$$$$$$$$$$$$$$$$
$*
$*
$*$$$$$$$$$$$$$$$$$$$$$$$$$$$$$$$$$$$
$*
$* EXECUTIVE CONTROL
$*
$*$$$$$$$$$$$$$$$$$$$$$$$$$$$$$$$$$$$
$*
ID,NASTRAN,gear_new_sim1-solution_1
SOL 101
CEND
$*
$*$$$$$$$$$$$$$$$$$$$$$$$$$$$$$$$$$$$
$*
$* CASE CONTROL
$*
$*$$$$$$$$$$$$$$$$$$$$$$$$$$$$$$$$$$$
$*
ECHO = NONE
SPC = 1
OUTPUT
DISPLACEMENT(PLOT,REAL) = ALL
SPCFORCES(PLOT,REAL) = ALL
STRESS(PLOT,REAL,VONMISES,CENTER) = ALL
$*  NX Step: Subcase - Static Loads 1
SUBCASE 1
LABEL = Subcase - Static Loads 1
LOAD = 2
$*
$*$$$$$$$$$$$$$$$$$$$$$$$$$$$$$$$$$$$
$*
$* BULK DATA
$*
$*$$$$$$$$$$$$$$$$$$$$$$$$$$$$$$$$$$$
$*
BEGIN BULK
$*
$* PARAM CARDS
$*
PARAM      K6ROT100.0000
PARAM    OMACHPR     YES
PARAM       POST      -2
PARAM    POSTEXT     YES
PARAM    UNITSYS  LBF-IN
$*
$* GRID CARDS
$*
GRID*               7065               0-9.773114324E-01-6.963205338E-01+
*       1.0000000000E+00               0
GRID*               7066               09.7203356028E-01-7.036694884E-01+
*       1.0000000000E+00               0
GRID*               6954               0-1.040499585E+00-5.977954083E-01+
*       -1.000000000E+00               0
GRID*               6955               0-1.086311245E+00-5.098298487E-01+
*       -1.000000000E+00               0
GRID*               6956               0-1.124702918E+00-4.183818545E-01+
*       -1.000000000E+00               0
GRID*               6957               0-1.155410763E+00-3.240755083E-01+
*       -1.000000000E+00               0
GRID*               6958               0-1.178226177E+00-2.275555315E-01+
*       -1.000000000E+00               0
GRID*               6959               0-1.192993908E+00-1.294812327E-01+
*       -1.000000000E+00               0
GRID*               6960               0-1.199611517E+00-3.052231780E-02+
*       -1.000000000E+00               0
GRID*               6961               0-1.198034377E+006.8645028443E-02+
*       -1.000000000E+00               0
GRID*               6962               0-1.188274279E+001.6734352119E-01+
*       -1.000000000E+00               0
GRID*               6963               0-1.170396532E+002.6489886959E-01+
*       -1.000000000E+00               0
GRID*               6964               0-1.144523447E+003.6064455295E-01+
*       -1.000000000E+00               0
GRID*               6965               0-1.110832901E+004.5392690247E-01+
*       -1.000000000E+00               0
GRID*               6966               0-1.069553979E+005.4410844267E-01+
*       -1.000000000E+00               0
GRID*               6967               0-1.020968326E+006.3057282053E-01+
*       -1.000000000E+00               0
GRID*               6968               0-9.654091082E-017.1273012015E-01+
*       -1.000000000E+00               0
GRID*               6969               0-9.032552466E-017.9001890540E-01+
*       -1.000000000E+00               0
GRID*               6970               0-8.349305399E-018.6191042676E-01+
*       -1.000000000E+00               0
GRID*               6971               0-7.609028907E-019.2791462978E-01+
*       -1.000000000E+00               0
GRID*               6972               0-6.816777021E-019.8758059536E-01+
*       -1.000000000E+00               0
GRID*               6973               0-5.977954114E-011.0404995829E+00+
*       -1.000000000E+00               0
GRID*               6974               0-5.098298519E-011.0863112439E+00+
*       -1.000000000E+00               0
GRID*               6975               0-4.183818578E-011.1247029163E+00+
*       -1.000000000E+00               0
GRID*               6976               0-3.240755118E-011.1554107625E+00+
*       -1.000000000E+00               0
GRID*               6977               0-2.275555351E-011.1782261766E+00+
*       -1.000000000E+00               0
GRID*               6978               0-1.294812363E-011.1929939077E+00+
*       -1.000000000E+00               0
GRID*               6979               0-3.052232140E-021.1996115171E+00+
*       -1.000000000E+00               0
GRID*               6980               06.8645024848E-021.1980343773E+00+
*       -1.000000000E+00               0
GRID*               6981               01.6734351762E-011.1882742793E+00+
*       -1.000000000E+00               0
GRID*               6982               02.6489886608E-011.1703965331E+00+
*       -1.000000000E+00               0
GRID*               6983               03.6064454951E-011.1445234476E+00+
*       -1.000000000E+00               0
GRID*               6984               04.5392689913E-011.1108329028E+00+
*       -1.000000000E+00               0
GRID*               6985               05.4410843946E-011.0695539805E+00+
*       -1.000000000E+00               0
GRID*               6986               06.3057281747E-011.0209683282E+00+
*       -1.000000000E+00               0
GRID*               6987               07.1273011726E-019.6540911031E-01+
*       -1.000000000E+00               0
GRID*               6988               07.9001890269E-019.0325524893E-01+
*       -1.000000000E+00               0
GRID*               6989               08.6191042425E-018.3493054253E-01+
*       -1.000000000E+00               0
GRID*               6990               09.2791462750E-017.6090289344E-01+
*       -1.000000000E+00               0
GRID*               6991               09.8758059331E-016.8167770502E-01+
*       -1.000000000E+00               0
GRID*               6992               01.0404995811E+005.9779541455E-01+
*       -1.000000000E+00               0
GRID*               6993               01.0863112424E+005.0982985518E-01+
*       -1.000000000E+00               0
GRID*               6994               01.1247029150E+004.1838186120E-01+
*       -1.000000000E+00               0
GRID*               6995               01.1554107615E+003.2407551526E-01+
*       -1.000000000E+00               0
GRID*               6996               01.1782261759E+002.2755553859E-01+
*       -1.000000000E+00               0
GRID*               6997               01.1929939037E+001.2948123966E-01+
*       -1.000000000E+00               0
GRID*               6998               01.1996114116E+003.0522318616E-02+
*       -1.000000000E+00               0
GRID*               6999               01.1980343125E+00-6.864503175E-02+
*       -1.000000000E+00               0
GRID*               7000               01.1882742778E+00-1.673435283E-01+
*       -1.000000000E+00               0
GRID*               7001               01.1703965307E+00-2.648988766E-01+
*       -1.000000000E+00               0
GRID*               7002               01.1445234444E+00-3.606445598E-01+
*       -1.000000000E+00               0
GRID*               7003               01.1108328987E+00-4.539269091E-01+
*       -1.000000000E+00               0
GRID*               7004               01.0695539756E+00-5.441084491E-01+
*       -1.000000000E+00               0
GRID*               7005               01.0209683225E+00-6.305728267E-01+
*       -1.000000000E+00               0
GRID*               7006               09.6540910390E-01-7.127301259E-01+
*       -1.000000000E+00               0
GRID*               7007               09.0325524182E-01-7.900189108E-01+
*       -1.000000000E+00               0
GRID*               7008               08.3493053477E-01-8.619104318E-01+
*       -1.000000000E+00               0
GRID*               7009               07.6090288508E-01-9.279146343E-01+
*       -1.000000000E+00               0
GRID*               7010               06.8167769613E-01-9.875805994E-01+
*       -1.000000000E+00               0
GRID*               7011               05.9779540519E-01-1.040499586E+00+
*       -1.000000000E+00               0
GRID*               7012               05.0982984541E-01-1.086311247E+00+
*       -1.000000000E+00               0
GRID*               7013               04.1838185108E-01-1.124702919E+00+
*       -1.000000000E+00               0
GRID*               7014               03.2407550486E-01-1.155410764E+00+
*       -1.000000000E+00               0
GRID*               7015               02.2755552799E-01-1.178226178E+00+
*       -1.000000000E+00               0
GRID*               7016               01.2948122915E-01-1.192993909E+00+
*       -1.000000000E+00               0
GRID*               7017               03.0522314196E-02-1.199611517E+00+
*       -1.000000000E+00               0
GRID*               7018               0-6.864503204E-02-1.198034377E+00+
*       -1.000000000E+00               0
GRID*               7019               0-1.673435248E-01-1.188274278E+00+
*       -1.000000000E+00               0
GRID*               7020               0-2.648988731E-01-1.170396531E+00+
*       -1.000000000E+00               0
GRID*               7021               0-3.606445564E-01-1.144523445E+00+
*       -1.000000000E+00               0
GRID*               7022               0-4.539269058E-01-1.110832900E+00+
*       -1.000000000E+00               0
GRID*               7023               0-5.441084459E-01-1.069553977E+00+
*       -1.000000000E+00               0
GRID*               7024               0-6.305728236E-01-1.020968324E+00+
*       -1.000000000E+00               0
GRID*               7025               0-7.127301230E-01-9.654091060E-01+
*       -1.000000000E+00               0
GRID*               7026               0-7.900189081E-01-9.032552442E-01+
*       -1.000000000E+00               0
GRID*               7027               0-8.619104293E-01-8.349305374E-01+
*       -1.000000000E+00               0
GRID*               7028               0-9.279146321E-01-7.609028879E-01+
*       -1.000000000E+00               0
GRID*               7053               01.2193168514E-01-2.752385222E-02+
*       -1.500000000E+00               0
GRID*               7054               09.5192438875E-02-8.101450727E-02+
*       -1.500000000E+00               0
GRID*               7055               04.6631499412E-02-1.159757865E-01+
*       -1.500000000E+00               0
GRID*               7056               0-1.258545377E-02-1.243634321E-01+
*       -1.500000000E+00               0
GRID*               7057               0-6.896297050E-02-1.042549265E-01+
*       -1.500000000E+00               0
GRID*               7058               0-1.095030846E-01-6.028301794E-02+
*       -1.500000000E+00               0
GRID*               7059               0-1.249752792E-01-2.483070718E-03+
*       -1.500000000E+00               0
GRID*               7060               0-1.118137878E-015.5879198533E-02+
*       -1.500000000E+00               0
GRID*               7061               0-7.304653740E-021.0143567857E-01+
*       -1.500000000E+00               0
GRID*               7062               0-1.752249293E-021.2376422729E-01+
*       -1.500000000E+00               0
GRID*               7063               04.1986806314E-021.1773693857E-01+
*       -1.500000000E+00               0
GRID*               7064               09.1898615313E-028.4732786007E-02+
*       -1.500000000E+00               0
GRID*               6942               09.1898615313E-028.4732786007E-02+
*       -1.000000000E+00               0
GRID*               6943               04.1986806314E-021.1773693857E-01+
*       -1.000000000E+00               0
GRID*               6944               0-1.752249293E-021.2376422729E-01+
*       -1.000000000E+00               0
GRID*               6945               0-7.304653740E-021.0143567857E-01+
*       -1.000000000E+00               0
GRID*               6946               0-1.118137878E-015.5879198533E-02+
*       -1.000000000E+00               0
GRID*               6947               0-1.249752792E-01-2.483070718E-03+
*       -1.000000000E+00               0
GRID*               6948               0-1.095030846E-01-6.028301794E-02+
*       -1.000000000E+00               0
GRID*               6949               0-6.896297050E-02-1.042549265E-01+
*       -1.000000000E+00               0
GRID*               6950               0-1.258545377E-02-1.243634321E-01+
*       -1.000000000E+00               0
GRID*               6951               04.6631499412E-02-1.159757865E-01+
*       -1.000000000E+00               0
GRID*               6952               09.5192438875E-02-8.101450727E-02+
*       -1.000000000E+00               0
GRID*               6953               01.2193168514E-01-2.752385222E-02+
*       -1.000000000E+00               0
GRID*               7029               0-9.189861531E-028.4732786007E-02+
*       1.0000000000E+00               0
GRID*               7030               0-4.198680631E-021.1773693857E-01+
*       1.0000000000E+00               0
GRID*               7031               01.7522492926E-021.2376422729E-01+
*       1.0000000000E+00               0
GRID*               7032               07.3046537400E-021.0143567857E-01+
*       1.0000000000E+00               0
GRID*               7033               01.1181378778E-015.5879198533E-02+
*       1.0000000000E+00               0
GRID*               7034               01.2497527918E-01-2.483070718E-03+
*       1.0000000000E+00               0
GRID*               7035               01.0950308464E-01-6.028301794E-02+
*       1.0000000000E+00               0
GRID*               7036               06.8962970502E-02-1.042549265E-01+
*       1.0000000000E+00               0
GRID*               7037               01.2585453770E-02-1.243634321E-01+
*       1.0000000000E+00               0
GRID*               7038               0-4.663149941E-02-1.159757865E-01+
*       1.0000000000E+00               0
GRID*               7039               0-9.519243887E-02-8.101450727E-02+
*       1.0000000000E+00               0
GRID*               7040               0-1.219316851E-01-2.752385222E-02+
*       1.0000000000E+00               0
GRID*               7041               0-9.189861531E-028.4732786007E-02+
*       1.5000000000E+00               0
GRID*               7042               0-4.198680631E-021.1773693857E-01+
*       1.5000000000E+00               0
GRID*               7043               01.7522492926E-021.2376422729E-01+
*       1.5000000000E+00               0
GRID*               7044               07.3046537400E-021.0143567857E-01+
*       1.5000000000E+00               0
GRID*               7045               01.1181378778E-015.5879198533E-02+
*       1.5000000000E+00               0
GRID*               7046               01.2497527918E-01-2.483070718E-03+
*       1.5000000000E+00               0
GRID*               7047               01.0950308464E-01-6.028301794E-02+
*       1.5000000000E+00               0
GRID*               7048               06.8962970502E-02-1.042549265E-01+
*       1.5000000000E+00               0
GRID*               7049               01.2585453770E-02-1.243634321E-01+
*       1.5000000000E+00               0
GRID*               7050               0-4.663149941E-02-1.159757865E-01+
*       1.5000000000E+00               0
GRID*               7051               0-9.519243887E-02-8.101450727E-02+
*       1.5000000000E+00               0
GRID*               7052               0-1.219316851E-01-2.752385222E-02+
*       1.5000000000E+00               0
GRID*               6816               0-9.166589075E-01-7.744262171E-01+
*       1.0000000000E+00               0
GRID*               6817               0-8.497853309E-01-8.472685114E-01+
*       1.0000000000E+00               0
GRID*               6818               0-7.771401237E-01-9.143593557E-01+
*       1.0000000000E+00               0
GRID*               6819               0-6.992110295E-01-9.752453693E-01+
*       1.0000000000E+00               0
GRID*               6820               0-6.165358476E-01-1.029505854E+00+
*       1.0000000000E+00               0
GRID*               6821               0-5.296717265E-01-1.076776371E+00+
*       1.0000000000E+00               0
GRID*               6822               0-4.392053575E-01-1.116735668E+00+
*       1.0000000000E+00               0
GRID*               6823               0-3.457551664E-01-1.149109154E+00+
*       1.0000000000E+00               0
GRID*               6824               0-2.499540915E-01-1.173678828E+00+
*       1.0000000000E+00               0
GRID*               6825               0-1.524550973E-01-1.190276132E+00+
*       1.0000000000E+00               0
GRID*               6826               0-5.392043159E-02-1.198787437E+00+
*       1.0000000000E+00               0
GRID*               6827               04.4976129518E-02-1.199156462E+00+
*       1.0000000000E+00               0
GRID*               6828               01.4356456318E-01-1.191381253E+00+
*       1.0000000000E+00               0
GRID*               6829               02.4117850364E-01-1.175513622E+00+
*       1.0000000000E+00               0
GRID*               6830               03.3714875648E-01-1.151663870E+00+
*       1.0000000000E+00               0
GRID*               6831               04.3082747769E-01-1.119994531E+00+
*       1.0000000000E+00               0
GRID*               6832               05.2158439233E-01-1.080717032E+00+
*       1.0000000000E+00               0
GRID*               6833               06.0879149167E-01-1.034104421E+00+
*       1.0000000000E+00               0
GRID*               6834               06.9186346967E-01-9.804716988E-01+
*       1.0000000000E+00               0
GRID*               6835               07.7024271823E-01-9.201771582E-01+
*       1.0000000000E+00               0
GRID*               6836               08.4338377613E-01-8.536410401E-01+
*       1.0000000000E+00               0
GRID*               6837               09.1079805124E-01-7.813108721E-01+
*       1.0000000000E+00               0
GRID*               6838               0-8.798441827E-01-6.966879815E-01+
*       1.0000000000E+00               0
GRID*               6839               0-7.823769331E-01-6.970554292E-01+
*       1.0000000000E+00               0
GRID*               6840               0-6.849096835E-01-6.974228770E-01+
*       1.0000000000E+00               0
GRID*               6841               0-5.874424338E-01-6.977903247E-01+
*       1.0000000000E+00               0
GRID*               6842               0-4.899751842E-01-6.981577724E-01+
*       1.0000000000E+00               0
GRID*               6843               0-3.925079346E-01-6.985252202E-01+
*       1.0000000000E+00               0
GRID*               6844               0-2.950406849E-01-6.988926679E-01+
*       1.0000000000E+00               0
GRID*               6845               0-1.975734353E-01-6.992601156E-01+
*       1.0000000000E+00               0
GRID*               6846               0-1.001061857E-01-6.996275634E-01+
*       1.0000000000E+00               0
GRID*               6847               0-2.638936043E-03-6.999950111E-01+
*       1.0000000000E+00               0
GRID*               6848               09.4828313589E-02-7.003624588E-01+
*       1.0000000000E+00               0
GRID*               6849               01.9229556322E-01-7.007299066E-01+
*       1.0000000000E+00               0
GRID*               6850               02.8976281285E-01-7.010973543E-01+
*       1.0000000000E+00               0
GRID*               6851               03.8723006248E-01-7.014648020E-01+
*       1.0000000000E+00               0
GRID*               6852               04.8469731212E-01-7.018322498E-01+
*       1.0000000000E+00               0
GRID*               6853               05.8216456175E-01-7.021996975E-01+
*       1.0000000000E+00               0
GRID*               6854               06.7963181138E-01-7.025671452E-01+
*       1.0000000000E+00               0
GRID*               6855               07.7709906101E-01-7.029345930E-01+
*       1.0000000000E+00               0
GRID*               6856               08.7456631064E-01-7.033020407E-01+
*       1.0000000000E+00               0
GRID*               6857               01.0268779028E+00-6.209035109E-01+
*       1.0000000000E+00               0
GRID*               6858               01.0746928906E+00-5.338864747E-01+
*       1.0000000000E+00               0
GRID*               6859               01.1151537796E+00-4.432065558E-01+
*       1.0000000000E+00               0
GRID*               6860               01.1479771989E+00-3.494962985E-01+
*       1.0000000000E+00               0
GRID*               6861               01.1729409402E+00-2.533947675E-01+
*       1.0000000000E+00               0
GRID*               6862               01.1898753220E+00-1.555529593E-01+
*       1.0000000000E+00               0
GRID*               6863               01.1986620879E+00-5.664523513E-02+
*       1.0000000000E+00               0
GRID*               6864               01.1992416808E+004.2646451603E-02+
*       1.0000000000E+00               0
GRID*               6865               01.1916105921E+001.4164838126E-01+
*       1.0000000000E+00               0
GRID*               6866               01.1758186765E+002.3968710188E-01+
*       1.0000000000E+00               0
GRID*               6867               01.1519767610E+003.3607823354E-01+
*       1.0000000000E+00               0
GRID*               6868               01.1202475088E+004.3016925712E-01+
*       1.0000000000E+00               0
GRID*               6869               01.0808433580E+005.2132255856E-01+
*       1.0000000000E+00               0
GRID*               6870               01.0340407085E+006.0889960718E-01+
*       1.0000000000E+00               0
GRID*               6871               09.8015757853E-016.9230839102E-01+
*       1.0000000000E+00               0
GRID*               6872               09.1955740957E-017.7098241525E-01+
*       1.0000000000E+00               0
GRID*               6873               08.5266352112E-018.4437181575E-01+
*       1.0000000000E+00               0
GRID*               6874               07.7993051315E-019.1198028876E-01+
*       1.0000000000E+00               0
GRID*               6875               07.0185085421E-019.7334743987E-01+
*       1.0000000000E+00               0
GRID*               6876               06.1896817793E-011.0280453046E+00+
*       1.0000000000E+00               0
GRID*               6877               05.3184611996E-011.0757039898E+00+
*       1.0000000000E+00               0
GRID*               6878               04.4107641024E-011.1159979695E+00+
*       1.0000000000E+00               0
GRID*               6879               03.4728897936E-011.1486466692E+00+
*       1.0000000000E+00               0
GRID*               6880               02.5112218574E-011.1734294703E+00+
*       1.0000000000E+00               0
GRID*               6881               01.5323106099E-011.1901765307E+00+
*       1.0000000000E+00               0
GRID*               6882               05.4292620612E-021.1987706791E+00+
*       1.0000000000E+00               0
GRID*               6883               0-4.501879026E-021.1991548303E+00+
*       1.0000000000E+00               0
GRID*               6884               0-1.440235177E-011.1913258589E+00+
*       1.0000000000E+00               0
GRID*               6885               0-2.420437998E-011.1753356140E+00+
*       1.0000000000E+00               0
GRID*               6886               0-3.384079275E-011.1512943657E+00+
*       1.0000000000E+00               0
GRID*               6887               0-4.324553408E-011.1193669459E+00+
*       1.0000000000E+00               0
GRID*               6888               0-5.235400018E-011.0797706935E+00+
*       1.0000000000E+00               0
GRID*               6889               0-6.110383425E-011.0327780467E+00+
*       1.0000000000E+00               0
GRID*               6890               0-6.943511407E-019.7871156496E-01+
*       1.0000000000E+00               0
GRID*               6891               0-7.729054663E-019.1794141791E-01+
*       1.0000000000E+00               0
GRID*               6892               0-8.461636626E-018.5088518801E-01+
*       1.0000000000E+00               0
GRID*               6893               0-9.136257998E-017.7800227117E-01+
*       1.0000000000E+00               0
GRID*               6894               0-9.748307955E-016.9978885787E-01+
*       1.0000000000E+00               0
GRID*               6895               0-1.029356329E+006.1678532433E-01+
*       1.0000000000E+00               0
GRID*               6896               0-1.076831889E+005.2955884320E-01+
*       1.0000000000E+00               0
GRID*               6897               0-1.116933302E+004.3870253023E-01+
*       1.0000000000E+00               0
GRID*               6898               0-1.149382383E+003.4484612384E-01+
*       1.0000000000E+00               0
GRID*               6899               0-1.173960358E+002.4862934691E-01+
*       1.0000000000E+00               0
GRID*               6900               0-1.190499009E+001.5070551877E-01+
*       1.0000000000E+00               0
GRID*               6901               0-1.198882977E+005.1755772205E-02+
*       1.0000000000E+00               0
GRID*               6902               0-1.199057327E+00-4.754729993E-02+
*       1.0000000000E+00               0
GRID*               6903               0-1.191020253E+00-1.465292847E-01+
*       1.0000000000E+00               0
GRID*               6904               0-1.174826663E+00-2.445022726E-01+
*       1.0000000000E+00               0
GRID*               6905               0-1.150589104E+00-3.407991360E-01+
*       1.0000000000E+00               0
GRID*               6906               0-1.118472287E+00-4.347639944E-01+
*       1.0000000000E+00               0
GRID*               6907               0-1.078695271E+00-5.257525985E-01+
*       1.0000000000E+00               0
GRID*               6908               0-1.031534518E+00-6.131359592E-01+
*       1.0000000000E+00               0
GRID*               5391               0-1.040055875E+00-5.985670277E-01+
*       -8.998613315E-01               0
GRID*               5392               0-1.085935035E+00-5.106307277E-01+
*       -8.998611572E-01               0
GRID*               5393               0-1.124396287E+00-4.192052555E-01+
*       -8.998612957E-01               0
GRID*               5394               0-1.155175008E+00-3.249148226E-01+
*       -8.998611722E-01               0
GRID*               5395               0-1.178061594E+00-2.284061078E-01+
*       -8.998611723E-01               0
GRID*               5396               0-1.192900789E+00-1.303366827E-01+
*       -8.998613001E-01               0
GRID*               5397               0-1.199589501E+00-3.137515660E-02+
*       -8.998612148E-01               0
GRID*               5398               0-1.198082563E+006.7798913922E-02+
*       -8.998611974E-01               0
GRID*               5399               0-1.188391397E+001.6651008168E-01+
*       -8.998612976E-01               0
GRID*               5400               0-1.170580361E+002.6408530362E-01+
*       -8.998612536E-01               0
GRID*               5401               0-1.144772079E+003.5985454235E-01+
*       -8.998612272E-01               0
GRID*               5402               0-1.111143714E+004.5316565162E-01+
*       -8.998613037E-01               0
GRID*               5403               0-1.069923098E+005.4338223536E-01+
*       -8.998612882E-01               0
GRID*               5404               0-1.021392954E+006.2988476701E-01+
*       -8.998612616E-01               0
GRID*               5405               0-9.658855105E-017.1208442363E-01+
*       -8.998613183E-01               0
GRID*               5406               0-9.037782888E-017.8942048590E-01+
*       -8.998613135E-01               0
GRID*               5407               0-8.354966448E-018.6136166496E-01+
*       -8.998612958E-01               0
GRID*               5408               0-7.615075399E-019.2741851105E-01+
*       -8.998613502E-01               0
GRID*               5409               0-6.823149727E-019.8714041552E-01+
*       -8.998613284E-01               0
GRID*               5410               0-5.984609590E-011.0401169065E+00+
*       -8.998613441E-01               0
GRID*               5411               0-5.105180478E-011.0859879920E+00+
*       -8.998613488E-01               0
GRID*               5412               0-4.190880909E-011.1244399547E+00+
*       -8.998613289E-01               0
GRID*               5413               0-3.247936678E-011.1552090990E+00+
*       -8.998613809E-01               0
GRID*               5414               0-2.282814328E-011.1780857488E+00+
*       -8.998613313E-01               0
GRID*               5415               0-1.302099041E-011.1929146039E+00+
*       -8.998613111E-01               0
GRID*               5416               0-3.124739222E-021.1995928646E+00+
*       -8.998613366E-01               0
GRID*               5417               06.7927099689E-021.1980752960E+00+
*       -8.998612759E-01               0
GRID*               5418               01.6663749927E-011.1883735016E+00+
*       -8.998612841E-01               0
GRID*               5419               02.6421086705E-011.1705520574E+00+
*       -8.998613221E-01               0
GRID*               5420               03.5997756409E-011.1447334040E+00+
*       -8.998612415E-01               0
GRID*               5421               04.5328499204E-011.1110950017E+00+
*       -8.998612500E-01               0
GRID*               5422               05.4349701251E-011.0698648328E+00+
*       -8.998613172E-01               0
GRID*               5423               06.2999430539E-011.0213254056E+00+
*       -8.998612125E-01               0
GRID*               5424               07.1218764986E-019.6580937027E-01+
*       -8.998612094E-01               0
GRID*               5425               07.8951662275E-019.0369432668E-01+
*       -8.998613100E-01               0
GRID*               5426               08.6145050770E-018.3540506517E-01+
*       -8.998611892E-01               0
GRID*               5427               09.2749895392E-017.6140953153E-01+
*       -8.998611675E-01               0
GRID*               5428               09.8721165991E-016.8221188708E-01+
*       -8.998613272E-01               0
GRID*               5429               01.0401795122E+005.9835218457E-01+
*       -8.998611779E-01               0
GRID*               5430               01.0860405049E+005.1040633749E-01+
*       -8.998611283E-01               0
GRID*               5431               01.1244825941E+004.1897367504E-01+
*       -8.998612955E-01               0
GRID*               5432               01.1552421025E+003.2467626869E-01+
*       -8.998611755E-01               0
GRID*               5433               01.1781086789E+002.2816308808E-01+
*       -8.998610897E-01               0
GRID*               5434               01.1929275465E+001.3009127043E-01+
*       -8.998612419E-01               0
GRID*               5435               01.1995958576E+003.1128233346E-02+
*       -8.998611861E-01               0
GRID*               5436               01.1980685497E+00-6.804494074E-02+
*       -8.998610587E-01               0
GRID*               5437               01.1883572690E+00-1.667532447E-01+
*       -8.998611841E-01               0
GRID*               5438               01.1705263457E+00-2.643247552E-01+
*       -8.998612087E-01               0
GRID*               5439               01.1446987236E+00-3.600878423E-01+
*       -8.998610341E-01               0
GRID*               5440               01.1110517473E+00-4.533910128E-01+
*       -8.998611261E-01               0
GRID*               5441               01.0698130035E+00-5.435990265E-01+
*       -8.998612446E-01               0
GRID*               5442               01.0212659333E+00-6.300907175E-01+
*       -8.998610193E-01               0
GRID*               5443               09.6574275952E-01-7.122779787E-01+
*       -8.998610731E-01               0
GRID*               5444               09.0363410283E-01-7.895855571E-01+
*       -8.998612929E-01               0
GRID*               5445               08.3535503157E-01-8.614990287E-01+
*       -8.998610628E-01               0
GRID*               5446               07.6137220324E-01-9.275295989E-01+
*       -8.998610841E-01               0
GRID*               5447               06.8218944369E-01-9.872271692E-01+
*       -8.998613271E-01               0
GRID*               5448               05.9834669186E-01-1.040182672E+00+
*       -8.998611512E-01               0
GRID*               5449               05.1041950355E-01-1.086034317E+00+
*       -8.998611347E-01               0
GRID*               5450               04.1900663935E-01-1.124470311E+00+
*       -8.998612997E-01               0
GRID*               5451               03.2473008039E-01-1.155226977E+00+
*       -8.998612387E-01               0
GRID*               5452               02.2823793073E-01-1.178094180E+00+
*       -8.998612069E-01               0
GRID*               5453               01.3018699897E-01-1.192917105E+00+
*       -8.998612906E-01               0
GRID*               5454               03.1245144425E-02-1.199592923E+00+
*       -8.998613205E-01               0
GRID*               5455               0-6.790844664E-02-1.198076353E+00+
*       -8.998613126E-01               0
GRID*               5456               0-1.665987196E-01-1.188378938E+00+
*       -8.998613307E-01               0
GRID*               5457               0-2.641524601E-01-1.170565238E+00+
*       -8.998613792E-01               0
GRID*               5458               0-3.599000095E-01-1.144757784E+00+
*       -8.998613205E-01               0
GRID*               5459               0-4.531907040E-01-1.111133496E+00+
*       -8.998613309E-01               0
GRID*               5460               0-5.433878546E-01-1.069920245E+00+
*       -8.998612883E-01               0
GRID*               5461               0-6.298723075E-01-1.021400640E+00+
*       -8.998612197E-01               0
GRID*               5462               0-7.120555547E-01-9.659067939E-01+
*       -8.998612524E-01               0
GRID*               5463               0-7.893777845E-01-9.038155869E-01+
*       -8.998612882E-01               0
GRID*               5464               0-8.613071830E-01-8.355528150E-01+
*       -8.998611423E-01               0
GRID*               5465               0-9.273550092E-01-7.615848744E-01+
*       -8.998613702E-01               0
GRID*               5466               0-1.039611463E+00-5.993385521E-01+
*       -7.997261032E-01               0
GRID*               5467               0-1.085557962E+00-5.114319588E-01+
*       -7.997259997E-01               0
GRID*               5468               0-1.124089480E+00-4.200272108E-01+
*       -7.997260205E-01               0
GRID*               5469               0-1.154938590E+00-3.257541615E-01+
*       -7.997259454E-01               0
GRID*               5470               0-1.177896283E+00-2.292572416E-01+
*       -7.997260092E-01               0
GRID*               5471               0-1.192807125E+00-1.311910466E-01+
*       -7.997260280E-01               0
GRID*               5472               0-1.199566874E+00-3.222812475E-02+
*       -7.997259801E-01               0
GRID*               5473               0-1.198130200E+006.6952112403E-02+
*       -7.997260278E-01               0
GRID*               5474               0-1.188507937E+001.6567657147E-01+
*       -7.997261011E-01               0
GRID*               5475               0-1.170763643E+002.6327152665E-01+
*       -7.997260117E-01               0
GRID*               5476               0-1.145020355E+003.5906377787E-01+
*       -7.997260490E-01               0
GRID*               5477               0-1.111454203E+004.5240376886E-01+
*       -7.997261416E-01               0
GRID*               5478               0-1.070291741E+005.4265574499E-01+
*       -7.997260414E-01               0
GRID*               5479               0-1.021817406E+006.2919596391E-01+
*       -7.997260745E-01               0
GRID*               5480               0-9.663619261E-017.1143785032E-01+
*       -7.997261732E-01               0
GRID*               5481               0-9.043009330E-017.8882172082E-01+
*       -7.997260633E-01               0
GRID*               5482               0-8.360627257E-018.6081220066E-01+
*       -7.997260985E-01               0
GRID*               5483               0-7.621125312E-019.2692148407E-01+
*       -7.997262125E-01               0
GRID*               5484               0-6.829519380E-019.8669983913E-01+
*       -7.997260783E-01               0
GRID*               5485               0-5.991265970E-011.0397336036E+00+
*       -7.997261383E-01               0
GRID*               5486               0-5.112055999E-011.0856645040E+00+
*       -7.997261510E-01               0
GRID*               5487               0-4.197941214E-011.1241765627E+00+
*       -7.997260795E-01               0
GRID*               5488               0-3.255108966E-011.1550072388E+00+
*       -7.997262419E-01               0
GRID*               5489               0-2.290066928E-011.1779449802E+00+
*       -7.997261431E-01               0
GRID*               5490               0-1.309384548E-011.1928348616E+00+
*       -7.997260663E-01               0
GRID*               5491               0-3.197180852E-021.1995738146E+00+
*       -7.997261838E-01               0
GRID*               5492               06.7209784878E-021.1981157501E+00+
*       -7.997260954E-01               0
GRID*               5493               01.6593153628E-011.1884722867E+00+
*       -7.997260445E-01               0
GRID*               5494               02.6352305525E-011.1707071281E+00+
*       -7.997261410E-01               0
GRID*               5495               03.5931111539E-011.1449427737E+00+
*       -7.997260681E-01               0
GRID*               5496               04.5264309031E-011.1113566642E+00+
*       -7.997260168E-01               0
GRID*               5497               05.4288500212E-011.0701755211E+00+
*       -7.997260784E-01               0
GRID*               5498               06.2941622008E-011.0216817835E+00+
*       -7.997260451E-01               0
GRID*               5499               07.1164514120E-019.6620919105E-01+
*       -7.997259824E-01               0
GRID*               5500               07.8901307770E-019.0413395098E-01+
*       -7.997260113E-01               0
GRID*               5501               08.6099086227E-018.3587881346E-01+
*       -7.997260254E-01               0
GRID*               5502               09.2708319019E-017.6191571795E-01+
*       -7.997259477E-01               0
GRID*               5503               09.8684244103E-016.8274586254E-01+
*       -7.997260750E-01               0
GRID*               5504               01.0398595294E+005.9890816606E-01+
*       -7.997260165E-01               0
GRID*               5505               01.0857696143E+005.1098236024E-01+
*       -7.997259166E-01               0
GRID*               5506               01.1242619725E+004.1956534450E-01+
*       -7.997260613E-01               0
GRID*               5507               01.1550733378E+003.2527630006E-01+
*       -7.997260124E-01               0
GRID*               5508               01.1779909532E+002.2877017668E-01+
*       -7.997258848E-01               0
GRID*               5509               01.1928608845E+001.3070122418E-01+
*       -7.997260102E-01               0
GRID*               5510               01.1995800385E+003.1733605121E-02+
*       -7.997260165E-01               0
GRID*               5511               01.1981024720E+00-6.744529286E-02+
*       -7.997258615E-01               0
GRID*               5512               01.1884399620E+00-1.661629879E-01+
*       -7.997259551E-01               0
GRID*               5513               01.1706558356E+00-2.637508576E-01+
*       -7.997260241E-01               0
GRID*               5514               01.1448735945E+00-3.595315251E-01+
*       -7.997258434E-01               0
GRID*               5515               01.1112703046E+00-4.528551073E-01+
*       -7.997259004E-01               0
GRID*               5516               01.0700718710E+00-5.430893177E-01+
*       -7.997260281E-01               0
GRID*               5517               01.0215630503E+00-6.296089367E-01+
*       -7.997258347E-01               0
GRID*               5518               09.6607612771E-01-7.118257915E-01+
*       -7.997258504E-01               0
GRID*               5519               09.0401362709E-01-7.891509663E-01+
*       -7.997260204E-01               0
GRID*               5520               08.3577891157E-01-8.610878491E-01+
*       -7.997258848E-01               0
GRID*               5521               07.6184114628E-01-9.271444811E-01+
*       -7.997258637E-01               0
GRID*               5522               06.8270100029E-01-9.868734780E-01+
*       -7.997260749E-01               0
GRID*               5523               05.9889723462E-01-1.039865827E+00+
*       -7.997259840E-01               0
GRID*               5524               05.1100869553E-01-1.085757220E+00+
*       -7.997259227E-01               0
GRID*               5525               04.1963126828E-01-1.124237368E+00+
*       -7.997260609E-01               0
GRID*               5526               03.2538387569E-01-1.155043037E+00+
*       -7.997260789E-01               0
GRID*               5527               02.2891978280E-01-1.177961883E+00+
*       -7.997260070E-01               0
GRID*               5528               01.3089266098E-01-1.192839890E+00+
*       -7.997260479E-01               0
GRID*               5529               03.1967344964E-02-1.199573935E+00+
*       -7.997261607E-01               0
GRID*               5530               0-6.717247015E-02-1.198117843E+00+
*       -7.997261300E-01               0
GRID*               5531               0-1.658539736E-01-1.188483109E+00+
*       -7.997260904E-01               0
GRID*               5532               0-2.634062137E-01-1.170733417E+00+
*       -7.997262005E-01               0
GRID*               5533               0-3.591546817E-01-1.144991838E+00+
*       -7.997261455E-01               0
GRID*               5534               0-4.524538810E-01-1.111433803E+00+
*       -7.997261676E-01               0
GRID*               5535               0-5.426669840E-01-1.070286042E+00+
*       -7.997260415E-01               0
GRID*               5536               0-6.291710686E-01-1.021832742E+00+
*       -7.997260275E-01               0
GRID*               5537               0-7.113801432E-01-9.664044119E-01+
*       -7.997260979E-01               0
GRID*               5538               0-7.887362722E-01-9.043754678E-01+
*       -7.997260370E-01               0
GRID*               5539               0-8.607032377E-01-8.361749202E-01+
*       -7.997259345E-01               0
GRID*               5540               0-9.267944966E-01-7.622669667E-01+
*       -7.997262060E-01               0
GRID*               5541               0-1.039166393E+00-6.001098985E-01+
*       -6.995976481E-01               0
GRID*               5542               0-1.085180222E+00-5.122331020E-01+
*       -6.995976169E-01               0
GRID*               5543               0-1.123781964E+00-4.208492922E-01+
*       -6.995975323E-01               0
GRID*               5544               0-1.154701527E+00-3.265934562E-01+
*       -6.995974893E-01               0
GRID*               5545               0-1.177730308E+00-2.301085574E-01+
*       -6.995976281E-01               0
GRID*               5546               0-1.192712971E+00-1.320438623E-01+
*       -6.995974595E-01               0
GRID*               5547               0-1.199543635E+00-3.308116395E-02+
*       -6.995975130E-01               0
GRID*               5548               0-1.198177267E+006.6104918848E-02+
*       -6.995976439E-01               0
GRID*               5549               0-1.188623517E+001.6484505494E-01+
*       -6.995975248E-01               0
GRID*               5550               0-1.170946368E+002.6245758058E-01+
*       -6.995975347E-01               0
GRID*               5551               0-1.145268201E+003.5827248147E-01+
*       -6.995976584E-01               0
GRID*               5552               0-1.111763754E+004.5164260889E-01+
*       -6.995976710E-01               0
GRID*               5553               0-1.070659889E+005.4192900186E-01+
*       -6.995975565E-01               0
GRID*               5554               0-1.022241589E+006.2850655894E-01+
*       -6.995976749E-01               0
GRID*               5555               0-9.668376701E-017.1079127209E-01+
*       -6.995977626E-01               0
GRID*               5556               0-9.048231597E-017.8822263162E-01+
*       -6.995975728E-01               0
GRID*               5557               0-8.366286888E-018.6026212346E-01+
*       -6.995976876E-01               0
GRID*               5558               0-7.627172005E-019.2642406667E-01+
*       -6.995978369E-01               0
GRID*               5559               0-6.835885779E-019.8625887991E-01+
*       -6.995975864E-01               0
GRID*               5560               0-5.997922445E-011.0393497201E+00+
*       -6.995977156E-01               0
GRID*               5561               0-5.118926118E-011.0853407314E+00+
*       -6.995977337E-01               0
GRID*               5562               0-4.204999388E-011.1239127445E+00+
*       -6.995975882E-01               0
GRID*               5563               0-3.262280268E-011.1548049219E+00+
*       -6.995978554E-01               0
GRID*               5564               0-2.297314656E-011.1778038405E+00+
*       -6.995977384E-01               0
GRID*               5565               0-1.316668920E-011.1927546802E+00+
*       -6.995975805E-01               0
GRID*               5566               0-3.269667562E-021.1995542970E+00+
*       -6.995977530E-01               0
GRID*               5567               06.6492876727E-021.1981557489E+00+
*       -6.995976995E-01               0
GRID*               5568               01.6522560607E-011.1885706375E+00+
*       -6.995975659E-01               0
GRID*               5569               02.6283400839E-011.1708620036E+00+
*       -6.995976345E-01               0
GRID*               5570               03.5864495992E-011.1451516285E+00+
*       -6.995976792E-01               0
GRID*               5571               04.5200115620E-011.1116179048E+00+
*       -6.995975470E-01               0
GRID*               5572               05.4227105466E-011.0704866611E+00+
*       -6.995974769E-01               0
GRID*               5573               06.2883828383E-011.0220376251E+00+
*       -6.995976601E-01               0
GRID*               5574               07.1110254471E-019.6660860527E-01+
*       -6.995975220E-01               0
GRID*               5575               07.8850950298E-019.0457313019E-01+
*       -6.995974937E-01               0
GRID*               5576               08.6053120301E-018.3635206631E-01+
*       -6.995976400E-01               0
GRID*               5577               09.2666728452E-017.6242151287E-01+
*       -6.995974972E-01               0
GRID*               5578               09.8647295107E-016.8327961097E-01+
*       -6.995975801E-01               0
GRID*               5579               01.0395393743E+005.9946377713E-01+
*       -6.995976255E-01               0
GRID*               5580               01.0854985259E+005.1155801220E-01+
*       -6.995974763E-01               0
GRID*               5581               01.1240410532E+004.2015685571E-01+
*       -6.995975848E-01               0
GRID*               5582               01.1549042817E+003.2587618976E-01+
*       -6.995976084E-01               0
GRID*               5583               01.1778729717E+002.2937692665E-01+
*       -6.995974536E-01               0
GRID*               5584               01.1927939146E+001.3131110009E-01+
*       -6.995975364E-01               0
GRID*               5585               01.1995639041E+003.2339186121E-02+
*       -6.995975886E-01               0
GRID*               5586               01.1981360831E+00-6.684593371E-02+
*       -6.995974388E-01               0
GRID*               5587               01.1885223549E+00-1.655727445E-01+
*       -6.995974850E-01               0
GRID*               5588               01.1707851638E+00-2.631762607E-01+
*       -6.995975555E-01               0
GRID*               5589               01.1450481083E+00-3.589754247E-01+
*       -6.995974276E-01               0
GRID*               5590               01.1114885772E+00-4.523191660E-01+
*       -6.995974351E-01               0
GRID*               5591               01.0703311188E+00-5.425781286E-01+
*       -6.995974872E-01               0
GRID*               5592               01.0218597902E+00-6.291272796E-01+
*       -6.995974239E-01               0
GRID*               5593               09.6640922821E-01-7.113735304E-01+
*       -6.995973901E-01               0
GRID*               5594               09.0439308968E-01-7.887160353E-01+
*       -6.995975099E-01               0
GRID*               5595               08.3620238959E-01-8.606766699E-01+
*       -6.995974804E-01               0
GRID*               5596               07.6230976609E-01-9.267592342E-01+
*       -6.995974098E-01               0
GRID*               5597               06.8321234661E-01-9.865195394E-01+
*       -6.995975803E-01               0
GRID*               5598               05.9944741465E-01-1.039548814E+00+
*       -6.995975865E-01               0
GRID*               5599               05.1159750992E-01-1.085479912E+00+
*       -6.995974820E-01               0
GRID*               5600               04.2025572604E-01-1.124004092E+00+
*       -6.995975799E-01               0
GRID*               5601               03.2603752355E-01-1.154858742E+00+
*       -6.995976772E-01               0
GRID*               5602               02.2960122172E-01-1.177829258E+00+
*       -6.995975852E-01               0
GRID*               5603               01.3159821925E-01-1.192762263E+00+
*       -6.995975638E-01               0
GRID*               5604               03.2689914192E-02-1.199554487E+00+
*       -6.995977295E-01               0
GRID*               5605               0-6.643689925E-02-1.198158854E+00+
*       -6.995977319E-01               0
GRID*               5606               0-1.651092658E-01-1.188586796E+00+
*       -6.995976119E-01               0
GRID*               5607               0-2.626585682E-01-1.170901355E+00+
*       -6.995976830E-01               0
GRID*               5608               0-3.584088050E-01-1.145225532E+00+
*       -6.995977613E-01               0
GRID*               5609               0-4.517177824E-01-1.111733211E+00+
*       -6.995976965E-01               0
GRID*               5610               0-5.419458644E-01-1.070651354E+00+
*       -6.995975566E-01               0
GRID*               5611               0-6.284692492E-01-1.022264540E+00+
*       -6.995976196E-01               0
GRID*               5612               0-7.107046129E-01-9.669013886E-01+
*       -6.995976866E-01               0
GRID*               5613               0-7.880943954E-01-9.049348644E-01+
*       -6.995975448E-01               0
GRID*               5614               0-8.600986769E-01-8.367967631E-01+
*       -6.995975046E-01               0
GRID*               5615               0-9.262334622E-01-7.629486884E-01+
*       -6.995978067E-01               0
GRID*               5616               0-1.038720708E+00-6.008809917E-01+
*       -5.994791311E-01               0
GRID*               5617               0-1.084802028E+00-5.130336789E-01+
*       -5.994791459E-01               0
GRID*               5618               0-1.123473855E+00-4.216711324E-01+
*       -5.994789754E-01               0
GRID*               5619               0-1.154463836E+00-3.274326452E-01+
*       -5.994789702E-01               0
GRID*               5620               0-1.177563746E+00-2.309596430E-01+
*       -5.994791723E-01               0
GRID*               5621               0-1.192618156E+00-1.328974523E-01+
*       -5.994788803E-01               0
GRID*               5622               0-1.199519785E+00-3.393422832E-02+
*       -5.994789812E-01               0
GRID*               5623               0-1.198223743E+006.5257663527E-02+
*       -5.994791942E-01               0
GRID*               5624               0-1.188738305E+001.6401472161E-01+
*       -5.994788290E-01               0
GRID*               5625               0-1.171128527E+002.6164349738E-01+
*       -5.994789910E-01               0
GRID*               5626               0-1.145515541E+003.5748089815E-01+
*       -5.994792087E-01               0
GRID*               5627               0-1.112071661E+004.5088373727E-01+
*       -5.994789470E-01               0
GRID*               5628               0-1.071027532E+005.4120202766E-01+
*       -5.994790026E-01               0
GRID*               5629               0-1.022665401E+006.2781671785E-01+
*       -5.994792200E-01               0
GRID*               5630               0-9.673119480E-017.1014570387E-01+
*       -5.994791672E-01               0
GRID*               5631               0-9.053449550E-017.8762323388E-01+
*       -5.994790113E-01               0
GRID*               5632               0-8.371944338E-018.5971153295E-01+
*       -5.994792236E-01               0
GRID*               5633               0-7.633207634E-019.2592687358E-01+
*       -5.994793231E-01               0
GRID*               5634               0-6.842248743E-019.8581755031E-01+
*       -5.994790219E-01               0
GRID*               5635               0-6.004578177E-011.0389653063E+00+
*       -5.994792396E-01               0
GRID*               5636               0-5.125791740E-011.0850166341E+00+
*       -5.994792572E-01               0
GRID*               5637               0-4.212055241E-011.1236485074E+00+
*       -5.994790235E-01               0
GRID*               5638               0-3.269458418E-011.1546019043E+00+
*       -5.994793300E-01               0
GRID*               5639               0-2.304558873E-011.1776623045E+00+
*       -5.994792746E-01               0
GRID*               5640               0-1.323952059E-011.1926740615E+00+
*       -5.994790219E-01               0
GRID*               5641               0-3.342300231E-021.1995342494E+00+
*       -5.994791407E-01               0
GRID*               5642               06.5776191750E-021.1981953035E+00+
*       -5.994792426E-01               0
GRID*               5643               01.6451970653E-011.1886685551E+00+
*       -5.994790156E-01               0
GRID*               5644               02.6214269990E-011.1710168751E+00+
*       -5.994789045E-01               0
GRID*               5645               03.5797887254E-011.1453600377E+00+
*       -5.994792260E-01               0
GRID*               5646               04.5135917419E-011.1118787306E+00+
*       -5.994790069E-01               0
GRID*               5647               05.4165727949E-011.0707972965E+00+
*       -5.994788358E-01               0
GRID*               5648               06.2826024424E-011.0223930816E+00+
*       -5.994792050E-01               0
GRID*               5649               07.1055983299E-019.6700763378E-01+
*       -5.994789932E-01               0
GRID*               5650               07.8800585060E-019.0501189325E-01+
*       -5.994789130E-01               0
GRID*               5651               08.6007127366E-018.3682507773E-01+
*       -5.994791765E-01               0
GRID*               5652               09.2625120271E-017.6292695859E-01+
*       -5.994789798E-01               0
GRID*               5653               09.8610320402E-016.8381311265E-01+
*       -5.994790117E-01               0
GRID*               5654               01.0392188193E+006.0001938990E-01+
*       -5.994791441E-01               0
GRID*               5655               01.0852272070E+005.1213336312E-01+
*       -5.994789698E-01               0
GRID*               5656               01.1238198429E+004.2074818914E-01+
*       -5.994790349E-01               0
GRID*               5657               01.1547347776E+003.2647643444E-01+
*       -5.994790979E-01               0
GRID*               5658               01.1777547140E+002.2998343862E-01+
*       -5.994789568E-01               0
GRID*               5659               01.1927266374E+001.3192088617E-01+
*       -5.994789887E-01               0
GRID*               5660               01.1995474152E+003.2945588976E-02+
*       -5.994790320E-01               0
GRID*               5661               01.1981693889E+00-6.624673220E-02+
*       -5.994789499E-01               0
GRID*               5662               01.1886044464E+00-1.649825168E-01+
*       -5.994789414E-01               0
GRID*               5663               01.1709144550E+00-2.626002679E-01+
*       -5.994789276E-01               0
GRID*               5664               01.1452223110E+00-3.584193847E-01+
*       -5.994789441E-01               0
GRID*               5665               01.1117065671E+00-4.517831806E-01+
*       -5.994788968E-01               0
GRID*               5666               01.0705904682E+00-5.420661205E-01+
*       -5.994788584E-01               0
GRID*               5667               01.0221562529E+00-6.286455755E-01+
*       -5.994789426E-01               0
GRID*               5668               09.6674207213E-01-7.109211777E-01+
*       -5.994788579E-01               0
GRID*               5669               09.0477221470E-01-7.882810785E-01+
*       -5.994789349E-01               0
GRID*               5670               08.3662564929E-01-8.602653036E-01+
*       -5.994790010E-01               0
GRID*               5671               07.6277809740E-01-9.263738289E-01+
*       -5.994788866E-01               0
GRID*               5672               06.8372346403E-01-9.861653667E-01+
*       -5.994790121E-01               0
GRID*               5673               05.9999756270E-01-1.039231430E+00+
*       -5.994791020E-01               0
GRID*               5674               05.1218601612E-01-1.085202358E+00+
*       -5.994789751E-01               0
GRID*               5675               04.2087999348E-01-1.123770490E+00+
*       -5.994790255E-01               0
GRID*               5676               03.2669157652E-01-1.154673920E+00+
*       -5.994791632E-01               0
GRID*               5677               02.3028236529E-01-1.177696282E+00+
*       -5.994791006E-01               0
GRID*               5678               01.3230366398E-01-1.192684225E+00+
*       -5.994790065E-01               0
GRID*               5679               03.3413734090E-02-1.199534526E+00+
*       -5.994791341E-01               0
GRID*               5680               0-6.570155138E-02-1.198199399E+00+
*       -5.994792728E-01               0
GRID*               5681               0-1.643645950E-01-1.188689999E+00+
*       -5.994790624E-01               0
GRID*               5682               0-2.619085735E-01-1.171069228E+00+
*       -5.994789299E-01               0
GRID*               5683               0-3.576626426E-01-1.145458784E+00+
*       -5.994793193E-01               0
GRID*               5684               0-4.509839556E-01-1.112031024E+00+
*       -5.994789736E-01               0
GRID*               5685               0-5.412245173E-01-1.071016168E+00+
*       -5.994790026E-01               0
GRID*               5686               0-6.277670037E-01-1.022695939E+00+
*       -5.994791544E-01               0
GRID*               5687               0-7.100297641E-01-9.673970962E-01+
*       -5.994791221E-01               0
GRID*               5688               0-7.874521736E-01-9.054937593E-01+
*       -5.994789805E-01               0
GRID*               5689               0-8.594935848E-01-8.374182570E-01+
*       -5.994790152E-01               0
GRID*               5690               0-9.256723045E-01-7.636295282E-01+
*       -5.994793017E-01               0
GRID*               5691               0-1.038274454E+00-6.016517528E-01+
*       -4.993734704E-01               0
GRID*               5692               0-1.084423615E+00-5.138331704E-01+
*       -4.993734744E-01               0
GRID*               5693               0-1.123165186E+00-4.224926379E-01+
*       -4.993732679E-01               0
GRID*               5694               0-1.154225536E+00-3.282716634E-01+
*       -4.993733078E-01               0
GRID*               5695               0-1.177396679E+00-2.318100445E-01+
*       -4.993735355E-01               0
GRID*               5696               0-1.192522720E+00-1.337511912E-01+
*       -4.993731724E-01               0
GRID*               5697               0-1.199495327E+00-3.478726941E-02+
*       -4.993733057E-01               0
GRID*               5698               0-1.198269605E+006.4410715849E-02+
*       -4.993735785E-01               0
GRID*               5699               0-1.188852725E+001.6318313217E-01+
*       -4.993730706E-01               0
GRID*               5700               0-1.171310115E+002.6082931032E-01+
*       -4.993733024E-01               0
GRID*               5701               0-1.145762287E+003.5668930639E-01+
*       -4.993736042E-01               0
GRID*               5702               0-1.112378733E+004.5012539189E-01+
*       -4.993730503E-01               0
GRID*               5703               0-1.071394659E+005.4047484416E-01+
*       -4.993733022E-01               0
GRID*               5704               0-1.023088726E+006.2712663252E-01+
*       -4.993736186E-01               0
GRID*               5705               0-9.677838682E-017.0950228649E-01+
*       -4.993732128E-01               0
GRID*               5706               0-9.058663063E-017.8702354218E-01+
*       -4.993733016E-01               0
GRID*               5707               0-8.377598422E-018.5916054702E-01+
*       -4.993736190E-01               0
GRID*               5708               0-7.639223030E-019.2543062340E-01+
*       -4.993735128E-01               0
GRID*               5709               0-6.848608114E-019.8537586127E-01+
*       -4.993733077E-01               0
GRID*               5710               0-6.011232149E-011.0385804234E+00+
*       -4.993736261E-01               0
GRID*               5711               0-5.132653714E-011.0846921746E+00+
*       -4.993736356E-01               0
GRID*               5712               0-4.219108582E-011.1233838591E+00+
*       -4.993733080E-01               0
GRID*               5713               0-3.276650882E-011.1543979537E+00+
*       -4.993735309E-01               0
GRID*               5714               0-2.311800850E-011.1775203490E+00+
*       -4.993736635E-01               0
GRID*               5715               0-1.331233847E-011.1925930074E+00+
*       -4.993733122E-01               0
GRID*               5716               0-3.415164282E-021.1995136202E+00+
*       -4.993732105E-01               0
GRID*               5717               06.5059559731E-021.1982344241E+00+
*       -4.993736342E-01               0
GRID*               5718               01.6381383866E-011.1887660401E+00+
*       -4.993733149E-01               0
GRID*               5719               02.6145159209E-011.1711712896E+00+
*       -4.993730508E-01               0
GRID*               5720               03.5731264596E-011.1455680649E+00+
*       -4.993736149E-01               0
GRID*               5721               04.5071713349E-011.1121391472E+00+
*       -4.993733171E-01               0
GRID*               5722               05.4104383883E-011.0711073446E+00+
*       -4.993730766E-01               0
GRID*               5723               06.2768187138E-011.0227482911E+00+
*       -4.993735832E-01               0
GRID*               5724               07.1001698466E-019.6740629326E-01+
*       -4.993733154E-01               0
GRID*               5725               07.8750207843E-019.0545027247E-01+
*       -4.993731869E-01               0
GRID*               5726               08.5961084408E-018.3729807616E-01+
*       -4.993735346E-01               0
GRID*               5727               09.2583491711E-017.6343208982E-01+
*       -4.993733139E-01               0
GRID*               5728               09.8573321308E-016.8434634910E-01+
*       -4.993732925E-01               0
GRID*               5729               01.0388976642E+006.0057533252E-01+
*       -4.993734690E-01               0
GRID*               5730               01.0849556305E+005.1270847090E-01+
*       -4.993733145E-01               0
GRID*               5731               01.1235983495E+004.2133932354E-01+
*       -4.993733346E-01               0
GRID*               5732               01.1545646912E+003.2707746013E-01+
*       -4.993733740E-01               0
GRID*               5733               01.1776361638E+002.3058979655E-01+
*       -4.993733104E-01               0
GRID*               5734               01.1926590542E+001.3253056884E-01+
*       -4.993732895E-01               0
GRID*               5735               01.1995305396E+003.3553318371E-02+
*       -4.993732369E-01               0
GRID*               5736               01.1982023941E+00-6.564757898E-02+
*       -4.993733093E-01               0
GRID*               5737               01.1886862355E+00-1.643923091E-01+
*       -4.993732458E-01               0
GRID*               5738               01.1710437516E+00-2.620227919E-01+
*       -4.993730948E-01               0
GRID*               5739               01.1453962411E+00-3.578632754E-01+
*       -4.993733060E-01               0
GRID*               5740               01.1119242757E+00-4.512471463E-01+
*       -4.993732065E-01               0
GRID*               5741               01.0708493459E+00-5.415544743E-01+
*       -4.993731070E-01               0
GRID*               5742               01.0224525210E+00-6.281636837E-01+
*       -4.993733026E-01               0
GRID*               5743               09.6707466781E-01-7.104687210E-01+
*       -4.993731741E-01               0
GRID*               5744               09.0515103752E-01-7.878460507E-01+
*       -4.993732137E-01               0
GRID*               5745               08.3704884325E-01-8.598535946E-01+
*       -4.993733548E-01               0
GRID*               5746               07.6324616740E-01-9.259882427E-01+
*       -4.993732133E-01               0
GRID*               5747               06.8423433512E-01-9.858109723E-01+
*       -4.993732933E-01               0
GRID*               5748               06.0054796193E-01-1.038913502E+00+
*       -4.993734309E-01               0
GRID*               5749               05.1277427156E-01-1.084924534E+00+
*       -4.993733192E-01               0
GRID*               5750               04.2150404994E-01-1.123536570E+00+
*       -4.993733205E-01               0
GRID*               5751               03.2734651936E-01-1.154488418E+00+
*       -4.993734247E-01               0
GRID*               5752               02.3096331665E-01-1.177562935E+00+
*       -4.993734675E-01               0
GRID*               5753               01.3300898338E-01-1.192605778E+00+
*       -4.993732980E-01               0
GRID*               5754               03.4139604487E-02-1.199514002E+00+
*       -4.993732423E-01               0
GRID*               5755               0-6.496625770E-02-1.198239486E+00+
*       -4.993736621E-01               0
GRID*               5756               0-1.636199627E-01-1.188792720E+00+
*       -4.993733631E-01               0
GRID*               5757               0-2.611590839E-01-1.171236511E+00+
*       -4.993730695E-01               0
GRID*               5758               0-3.569165010E-01-1.145691500E+00+
*       -4.993737213E-01               0
GRID*               5759               0-4.502507375E-01-1.112328002E+00+
*       -4.993730730E-01               0
GRID*               5760               0-5.405029643E-01-1.071380474E+00+
*       -4.993733022E-01               0
GRID*               5761               0-6.270645057E-01-1.023126835E+00+
*       -4.993735425E-01               0
GRID*               5762               0-7.093564741E-01-9.678908466E-01+
*       -4.993732553E-01               0
GRID*               5763               0-7.868096256E-01-9.060521367E-01+
*       -4.993732668E-01               0
GRID*               5764               0-8.588880525E-01-8.380393093E-01+
*       -4.993733818E-01               0
GRID*               5765               0-9.251114486E-01-7.643089410E-01+
*       -4.993735719E-01               0
GRID*               5766               0-1.037827680E+00-6.024220985E-01+
*       -3.992832654E-01               0
GRID*               5767               0-1.084045239E+00-5.146310038E-01+
*       -3.992831681E-01               0
GRID*               5768               0-1.122855971E+00-4.233137686E-01+
*       -3.992830127E-01               0
GRID*               5769               0-1.153986646E+00-3.291104425E-01+
*       -3.992831033E-01               0
GRID*               5770               0-1.177229200E+00-2.326592540E-01+
*       -3.992832899E-01               0
GRID*               5771               0-1.192426681E+00-1.346048501E-01+
*       -3.992829261E-01               0
GRID*               5772               0-1.199470263E+00-3.564023638E-02+
*       -3.992830886E-01               0
GRID*               5773               0-1.198314827E+006.3564494390E-02+
*       -3.992833744E-01               0
GRID*               5774               0-1.188966649E+001.6235100601E-01+
*       -3.992828058E-01               0
GRID*               5775               0-1.171491123E+002.6001505371E-01+
*       -3.992830723E-01               0
GRID*               5776               0-1.146008341E+003.5589802624E-01+
*       -3.992834279E-01               0
GRID*               5777               0-1.112685876E+004.4936552507E-01+
*       -3.992827145E-01               0
GRID*               5778               0-1.071761260E+005.3974747289E-01+
*       -3.992830593E-01               0
GRID*               5779               0-1.023511429E+006.2643652705E-01+
*       -3.992834582E-01               0
GRID*               5780               0-9.682552719E-017.0885867536E-01+
*       -3.992827259E-01               0
GRID*               5781               0-9.063872019E-017.8642356994E-01+
*       -3.992830481E-01               0
GRID*               5782               0-8.383247734E-018.5860930607E-01+
*       -3.992834653E-01               0
GRID*               5783               0-7.645209093E-019.2493603009E-01+
*       -3.992829312E-01               0
GRID*               5784               0-6.854963756E-019.8493382205E-01+
*       -3.992830481E-01               0
GRID*               5785               0-6.017883122E-011.0381951462E+00+
*       -3.992834703E-01               0
GRID*               5786               0-5.139512853E-011.0843673169E+00+
*       -3.992834655E-01               0
GRID*               5787               0-4.226159227E-011.1231188065E+00+
*       -3.992830459E-01               0
GRID*               5788               0-3.283864645E-011.1541928527E+00+
*       -3.992830081E-01               0
GRID*               5789               0-2.319041799E-011.1773779519E+00+
*       -3.992834992E-01               0
GRID*               5790               0-1.338514162E-011.1925115196E+00+
*       -3.992830552E-01               0
GRID*               5791               0-3.488012709E-021.1994925605E+00+
*       -3.992827456E-01               0
GRID*               5792               06.4342819083E-021.1982731207E+00+
*       -3.992834658E-01               0
GRID*               5793               01.6310800573E-011.1888630930E+00+
*       -3.992830667E-01               0
GRID*               5794               02.6076130319E-011.1713251254E+00+
*       -3.992827072E-01               0
GRID*               5795               03.5664608476E-011.1457757706E+00+
*       -3.992834348E-01               0
GRID*               5796               04.5007502713E-011.1123991583E+00+
*       -3.992830798E-01               0
GRID*               5797               05.4043056450E-011.0714168809E+00+
*       -3.992827897E-01               0
GRID*               5798               06.2710295032E-011.0231033828E+00+
*       -3.992833807E-01               0
GRID*               5799               07.0947398333E-019.6780459674E-01+
*       -3.992830901E-01               0
GRID*               5800               07.8699818269E-019.0588827000E-01+
*       -3.992829182E-01               0
GRID*               5801               08.5914970170E-018.3777127293E-01+
*       -3.992832975E-01               0
GRID*               5802               09.2541840554E-017.6393693473E-01+
*       -3.992830999E-01               0
GRID*               5803               09.8536299031E-016.8487930355E-01+
*       -3.992830271E-01               0
GRID*               5804               01.0385757269E+006.0113190364E-01+
*       -3.992831805E-01               0
GRID*               5805               01.0846837746E+005.1328338341E-01+
*       -3.992831098E-01               0
GRID*               5806               01.1233768441E+004.2192954405E-01+
*       -3.992830732E-01               0
GRID*               5807               01.1543939032E+003.2767964593E-01+
*       -3.992830147E-01               0
GRID*               5808               01.1775173072E+002.3119607050E-01+
*       -3.992831128E-01               0
GRID*               5809               01.1925911667E+001.3314013249E-01+
*       -3.992830428E-01               0
GRID*               5810               01.1995132730E+003.4162683355E-02+
*       -3.992828136E-01               0
GRID*               5811               01.1982351032E+00-6.504838246E-02+
*       -3.992831146E-01               0
GRID*               5812               01.1887677213E+00-1.638021291E-01+
*       -3.992830019E-01               0
GRID*               5813               01.1711726213E+00-2.614459999E-01+
*       -3.992827615E-01               0
GRID*               5814               01.1455699311E+00-3.573069881E-01+
*       -3.992831098E-01               0
GRID*               5815               01.1121417032E+00-4.507110624E-01+
*       -3.992829673E-01               0
GRID*               5816               01.0711078312E+00-5.410430183E-01+
*       -3.992828248E-01               0
GRID*               5817               01.0227486631E+00-6.276814873E-01+
*       -3.992830990E-01               0
GRID*               5818               09.6740702049E-01-7.100161526E-01+
*       -3.992829412E-01               0
GRID*               5819               09.0552956281E-01-7.874109455E-01+
*       -3.992829490E-01               0
GRID*               5820               08.3747210100E-01-8.594414111E-01+
*       -3.992831338E-01               0
GRID*               5821               07.6371399655E-01-9.256024591E-01+
*       -3.992829912E-01               0
GRID*               5822               06.8474494410E-01-9.854563674E-01+
*       -3.992830283E-01               0
GRID*               5823               06.0109886230E-01-1.038594878E+00+
*       -3.992831582E-01               0
GRID*               5824               05.1336232352E-01-1.084646417E+00+
*       -3.992831140E-01               0
GRID*               5825               04.2212773269E-01-1.123302393E+00+
*       -3.992830671E-01               0
GRID*               5826               03.2800279290E-01-1.154302098E+00+
*       -3.992830347E-01               0
GRID*               5827               02.3164416739E-01-1.177429200E+00+
*       -3.992832825E-01               0
GRID*               5828               01.3371416447E-01-1.192526924E+00+
*       -3.992830419E-01               0
GRID*               5829               03.4866036414E-02-1.199493013E+00+
*       -3.992827794E-01               0
GRID*               5830               0-6.423085849E-02-1.198279127E+00+
*       -3.992834915E-01               0
GRID*               5831               0-1.628753720E-01-1.188894960E+00+
*       -3.992831169E-01               0
GRID*               5832               0-2.604104224E-01-1.171403141E+00+
*       -3.992827219E-01               0
GRID*               5833               0-3.561707403E-01-1.145923567E+00+
*       -3.992835466E-01               0
GRID*               5834               0-4.495160012E-01-1.112625091E+00+
*       -3.992827337E-01               0
GRID*               5835               0-5.397812269E-01-1.071744261E+00+
*       -3.992830592E-01               0
GRID*               5836               0-6.263619519E-01-1.023557107E+00+
*       -3.992833741E-01               0
GRID*               5837               0-7.086841833E-01-9.683830992E-01+
*       -3.992827772E-01               0
GRID*               5838               0-7.861667682E-01-9.066099820E-01+
*       -3.992830079E-01               0
GRID*               5839               0-8.582821790E-01-8.386598197E-01+
*       -3.992832010E-01               0
GRID*               5840               0-9.245513561E-01-7.649863362E-01+
*       -3.992831755E-01               0
GRID*               5841               0-1.037380440E+00-6.031919396E-01+
*       -2.992107323E-01               0
GRID*               5842               0-1.083667192E+00-5.154265349E-01+
*       -2.992104044E-01               0
GRID*               5843               0-1.122546218E+00-4.241345019E-01+
*       -2.992104309E-01               0
GRID*               5844               0-1.153747190E+00-3.299489092E-01+
*       -2.992105741E-01               0
GRID*               5845               0-1.177061416E+00-2.335066933E-01+
*       -2.992106195E-01               0
GRID*               5846               0-1.192330045E+00-1.354583231E-01+
*       -2.992103573E-01               0
GRID*               5847               0-1.199444596E+00-3.649307541E-02+
*       -2.992105493E-01               0
GRID*               5848               0-1.198359381E+006.2719481909E-02+
*       -2.992107725E-01               0
GRID*               5849               0-1.189080022E+001.6151866435E-01+
*       -2.992102357E-01               0
GRID*               5850               0-1.171671545E+002.5920076311E-01+
*       -2.992105209E-01               0
GRID*               5851               0-1.146253586E+003.5510743163E-01+
*       -2.992108760E-01               0
GRID*               5852               0-1.112992784E+004.4860482290E-01+
*       -2.992101109E-01               0
GRID*               5853               0-1.072127323E+005.3901993513E-01+
*       -2.992104952E-01               0
GRID*               5854               0-1.023933348E+006.2574666702E-01+
*       -2.992109400E-01               0
GRID*               5855               0-9.687272493E-017.0821346753E-01+
*       -2.992100375E-01               0
GRID*               5856               0-9.069076315E-017.8582332928E-01+
*       -2.992104725E-01               0
GRID*               5857               0-8.388890580E-018.5805797929E-01+
*       -2.992109684E-01               0
GRID*               5858               0-7.651196819E-019.2444066605E-01+
*       -2.992100843E-01               0
GRID*               5859               0-6.861315561E-019.8449144011E-01+
*       -2.992104650E-01               0
GRID*               5860               0-6.024529572E-011.0378095666E+00+
*       -2.992109823E-01               0
GRID*               5861               0-5.146369962E-011.0840420253E+00+
*       -2.992109608E-01               0
GRID*               5862               0-4.233207001E-011.1228533564E+00+
*       -2.992104586E-01               0
GRID*               5863               0-3.291076178E-011.1539873311E+00+
*       -2.992101539E-01               0
GRID*               5864               0-2.326282915E-011.1772350911E+00+
*       -2.992109934E-01               0
GRID*               5865               0-1.345792882E-011.1924296001E+00+
*       -2.992104721E-01               0
GRID*               5866               0-3.560733659E-021.1994711332E+00+
*       -2.992100355E-01               0
GRID*               5867               06.3625811227E-021.1983114030E+00+
*       -2.992109466E-01               0
GRID*               5868               01.6240221237E-011.1889597137E+00+
*       -2.992104917E-01               0
GRID*               5869               02.6007155540E-011.1714784340E+00+
*       -2.992100745E-01               0
GRID*               5870               03.5597899802E-011.1459832138E+00+
*       -2.992108924E-01               0
GRID*               5871               04.4943285099E-011.1126587666E+00+
*       -2.992105152E-01               0
GRID*               5872               05.3981739170E-011.0717259346E+00+
*       -2.992101906E-01               0
GRID*               5873               06.2652327245E-011.0234584824E+00+
*       -2.992108017E-01               0
GRID*               5874               07.0893081661E-019.6820255427E-01+
*       -2.992105366E-01               0
GRID*               5875               07.8649416868E-019.0632588102E-01+
*       -2.992103278E-01               0
GRID*               5876               08.5868764188E-018.3824487190E-01+
*       -2.992106666E-01               0
GRID*               5877               09.2500165022E-017.6444151614E-01+
*       -2.992105565E-01               0
GRID*               5878               09.8499254632E-016.8541196135E-01+
*       -2.992104370E-01               0
GRID*               5879               01.0382528344E+006.0168938819E-01+
*       -2.992104778E-01               0
GRID*               5880               01.0844116209E+005.1385814037E-01+
*       -2.992105736E-01               0
GRID*               5881               01.1231551147E+004.2251942586E-01+
*       -2.992104842E-01               0
GRID*               5882               01.1542223027E+003.2828336943E-01+
*       -2.992102317E-01               0
GRID*               5883               01.1773981330E+002.3180231945E-01+
*       -2.992105807E-01               0
GRID*               5884               01.1925229768E+001.3374955979E-01+
*       -2.992104705E-01               0
GRID*               5885               01.1994957394E+003.4771402954E-02+
*       -2.992101144E-01               0
GRID*               5886               01.1982675198E+00-6.444906476E-02+
*       -2.992105815E-01               0
GRID*               5887               01.1888489022E+00-1.632119863E-01+
*       -2.992104309E-01               0
GRID*               5888               01.1713010918E+00-2.608697315E-01+
*       -2.992101335E-01               0
GRID*               5889               01.1457434089E+00-3.567504300E-01+
*       -2.992105700E-01               0
GRID*               5890               01.1123588487E+00-4.501749315E-01+
*       -2.992104001E-01               0
GRID*               5891               01.0713659551E+00-5.405316844E-01+
*       -2.992102280E-01               0
GRID*               5892               01.0230447387E+00-6.271988858E-01+
*       -2.992105456E-01               0
GRID*               5893               09.6773913254E-01-7.095634690E-01+
*       -2.992103796E-01               0
GRID*               5894               09.0590778790E-01-7.869757655E-01+
*       -2.992103618E-01               0
GRID*               5895               08.3789553702E-01-8.590286372E-01+
*       -2.992105490E-01               0
GRID*               5896               07.6418159952E-01-9.252164661E-01+
*       -2.992104396E-01               0
GRID*               5897               06.8525527722E-01-9.851015620E-01+
*       -2.992104385E-01               0
GRID*               5898               06.0165049555E-01-1.038275415E+00+
*       -2.992104874E-01               0
GRID*               5899               05.1395021106E-01-1.084367989E+00+
*       -2.992105773E-01               0
GRID*               5900               04.2275057786E-01-1.123068136E+00+
*       -2.992104785E-01               0
GRID*               5901               03.2866054850E-01-1.154114919E+00+
*       -2.992102228E-01               0
GRID*               5902               02.3232500081E-01-1.177295063E+00+
*       -2.992107603E-01               0
GRID*               5903               01.3441919385E-01-1.192447665E+00+
*       -2.992104597E-01               0
GRID*               5904               03.5591199135E-02-1.199471656E+00+
*       -2.992100689E-01               0
GRID*               5905               0-6.349519751E-02-1.198318331E+00+
*       -2.992109704E-01               0
GRID*               5906               0-1.621308268E-01-1.188996718E+00+
*       -2.992105443E-01               0
GRID*               5907               0-2.596623078E-01-1.171569170E+00+
*       -2.992100871E-01               0
GRID*               5908               0-3.554257893E-01-1.146154852E+00+
*       -2.992109866E-01               0
GRID*               5909               0-4.487804322E-01-1.112921983E+00+
*       -2.992101271E-01               0
GRID*               5910               0-5.390593263E-01-1.072107519E+00+
*       -2.992104949E-01               0
GRID*               5911               0-6.256595696E-01-1.023986617E+00+
*       -2.992108539E-01               0
GRID*               5912               0-7.080103513E-01-9.688758166E-01+
*       -2.992100880E-01               0
GRID*               5913               0-7.855236164E-01-9.071672827E-01+
*       -2.992104252E-01               0
GRID*               5914               0-8.576760737E-01-8.392796783E-01+
*       -2.992106853E-01               0
GRID*               5915               0-9.239921829E-01-7.656615389E-01+
*       -2.992103556E-01               0
GRID*               5916               0-1.036932792E+00-6.039611786E-01+
*       -1.991576490E-01               0
GRID*               5917               0-1.083289413E+00-5.162199228E-01+
*       -1.991570158E-01               0
GRID*               5918               0-1.122235933E+00-4.249548250E-01+
*       -1.991573068E-01               0
GRID*               5919               0-1.153507191E+00-3.307869837E-01+
*       -1.991575001E-01               0
GRID*               5920               0-1.176893451E+00-2.343516871E-01+
*       -1.991572646E-01               0
GRID*               5921               0-1.192232817E+00-1.363115544E-01+
*       -1.991572474E-01               0
GRID*               5922               0-1.199418328E+00-3.734572842E-02+
*       -1.991574688E-01               0
GRID*               5923               0-1.198403231E+006.1876248162E-02+
*       -1.991575201E-01               0
GRID*               5924               0-1.189192814E+001.6068627431E-01+
*       -1.991571338E-01               0
GRID*               5925               0-1.171851372E+002.5838647605E-01+
*       -1.991574307E-01               0
GRID*               5926               0-1.146497883E+003.5431796874E-01+
*       -1.991577018E-01               0
GRID*               5927               0-1.113299300E+004.4784364050E-01+
*       -1.991569980E-01               0
GRID*               5928               0-1.072492840E+005.3829225222E-01+
*       -1.991573931E-01               0
GRID*               5929               0-1.024354291E+006.2505737324E-01+
*       -1.991578234E-01               0
GRID*               5930               0-9.691993409E-017.0756725305E-01+
*       -1.991568806E-01               0
GRID*               5931               0-9.074275862E-017.8522283107E-01+
*       -1.991573588E-01               0
GRID*               5932               0-8.394524886E-018.5750677405E-01+
*       -1.991578926E-01               0
GRID*               5933               0-7.657195368E-019.2394381205E-01+
*       -1.991568341E-01               0
GRID*               5934               0-6.867663449E-019.8404872107E-01+
*       -1.991573427E-01               0
GRID*               5935               0-6.031169604E-011.0374237994E+00+
*       -1.991579313E-01               0
GRID*               5936               0-5.153225874E-011.0837162630E+00+
*       -1.991578979E-01               0
GRID*               5937               0-4.240251752E-011.1225875147E+00+
*       -1.991573305E-01               0
GRID*               5938               0-3.298271556E-011.1537818230E+00+
*       -1.991568598E-01               0
GRID*               5939               0-2.333525429E-011.1770917445E+00+
*       -1.991579204E-01               0
GRID*               5940               0-1.353069894E-011.1923472503E+00+
*       -1.991573469E-01               0
GRID*               5941               0-3.633361882E-021.1994493176E+00+
*       -1.991568392E-01               0
GRID*               5942               06.2908373310E-021.1983492812E+00+
*       -1.991578486E-01               0
GRID*               5943               01.6169646376E-011.1890559022E+00+
*       -1.991573736E-01               0
GRID*               5944               02.5938221158E-011.1716312405E+00+
*       -1.991569264E-01               0
GRID*               5945               03.5531119007E-011.1461904551E+00+
*       -1.991577570E-01               0
GRID*               5946               04.4879060288E-011.1129179739E+00+
*       -1.991574063E-01               0
GRID*               5947               05.3920429161E-011.0720345184E+00+
*       -1.991570605E-01               0
GRID*               5948               06.2594262437E-011.0238137188E+00+
*       -1.991576128E-01               0
GRID*               5949               07.0838747507E-019.6860017364E-01+
*       -1.991574376E-01               0
GRID*               5950               07.8599004314E-019.0676309977E-01+
*       -1.991571996E-01               0
GRID*               5951               08.5822445596E-018.3871908134E-01+
*       -1.991574058E-01               0
GRID*               5952               09.2458463674E-017.6494585272E-01+
*       -1.991574654E-01               0
GRID*               5953               09.8462188998E-016.8594431039E-01+
*       -1.991573067E-01               0
GRID*               5954               01.0379287835E+006.0224812591E-01+
*       -1.991571270E-01               0
GRID*               5955               01.0841391544E+005.1443277536E-01+
*       -1.991574869E-01               0
GRID*               5956               01.1229331185E+004.2310907973E-01+
*       -1.991573547E-01               0
GRID*               5957               01.1540505084E+003.2888662427E-01+
*       -1.991569494E-01               0
GRID*               5958               01.1772786315E+002.3240859446E-01+
*       -1.991574944E-01               0
GRID*               5959               01.1924544863E+001.3435883234E-01+
*       -1.991573571E-01               0
GRID*               5960               01.1994779429E+003.5379254674E-02+
*       -1.991569206E-01               0
GRID*               5961               01.1982996475E+00-6.384955729E-02+
*       -1.991574891E-01               0
GRID*               5962               01.1889297769E+00-1.626218925E-01+
*       -1.991573170E-01               0
GRID*               5963               01.1714291898E+00-2.602938471E-01+
*       -1.991569856E-01               0
GRID*               5964               01.1459166995E+00-3.561935181E-01+
*       -1.991574651E-01               0
GRID*               5965               01.1125757099E+00-4.496387588E-01+
*       -1.991572888E-01               0
GRID*               5966               01.0716237320E+00-5.400204410E-01+
*       -1.991570981E-01               0
GRID*               5967               01.0233408015E+00-6.267157887E-01+
*       -1.991574199E-01               0
GRID*               5968               09.6807100393E-01-7.091106700E-01+
*       -1.991572728E-01               0
GRID*               5969               09.0628570868E-01-7.865405154E-01+
*       -1.991572360E-01               0
GRID*               5970               08.3831925927E-01-8.586151639E-01+
*       -1.991573747E-01               0
GRID*               5971               07.6464898631E-01-9.248302559E-01+
*       -1.991573411E-01               0
GRID*               5972               06.8576532313E-01-9.847465643E-01+
*       -1.991573084E-01               0
GRID*               5973               06.0220309204E-01-1.037954974E+00+
*       -1.991571854E-01               0
GRID*               5974               05.1453796702E-01-1.084089235E+00+
*       -1.991574900E-01               0
GRID*               5975               04.2337317543E-01-1.122833578E+00+
*       -1.991573492E-01               0
GRID*               5976               03.2931734345E-01-1.153927630E+00+
*       -1.991569351E-01               0
GRID*               5977               02.3300589586E-01-1.177160507E+00+
*       -1.991576787E-01               0
GRID*               5978               01.3512405851E-01-1.192368002E+00+
*       -1.991573353E-01               0
GRID*               5979               03.6315439628E-02-1.199449913E+00+
*       -1.991568701E-01               0
GRID*               5980               0-6.275911478E-02-1.198357107E+00+
*       -1.991578709E-01               0
GRID*               5981               0-1.613863309E-01-1.189097995E+00+
*       -1.991574287E-01               0
GRID*               5982               0-2.589146016E-01-1.171734622E+00+
*       -1.991569381E-01               0
GRID*               5983               0-3.546821684E-01-1.146385194E+00+
*       -1.991577882E-01               0
GRID*               5984               0-4.480443856E-01-1.113218522E+00+
*       -1.991570116E-01               0
GRID*               5985               0-5.383372836E-01-1.072470238E+00+
*       -1.991573927E-01               0
GRID*               5986               0-6.249576273E-01-1.024415204E+00+
*       -1.991577461E-01               0
GRID*               5987               0-7.073354848E-01-9.693686047E-01+
*       -1.991569265E-01               0
GRID*               5988               0-7.848801828E-01-9.077240285E-01+
*       -1.991573027E-01               0
GRID*               5989               0-8.570698606E-01-8.398987608E-01+
*       -1.991576085E-01               0
GRID*               5990               0-9.234318007E-01-7.663372400E-01+
*       -1.991570952E-01               0
GRID*               5991               0-1.036484803E+00-6.047297044E-01+
*       -9.912531114E-02               0
GRID*               5992               0-1.082910429E+00-5.170143971E-01+
*       -9.912450967E-02               0
GRID*               5993               0-1.121925164E+00-4.257746110E-01+
*       -9.912494393E-02               0
GRID*               5994               0-1.153266676E+00-3.316245761E-01+
*       -9.912517916E-02               0
GRID*               5995               0-1.176725189E+00-2.351948986E-01+
*       -9.912460982E-02               0
GRID*               5996               0-1.192135001E+00-1.371645133E-01+
*       -9.912489831E-02               0
GRID*               5997               0-1.199391466E+00-3.819813055E-02+
*       -9.912514704E-02               0
GRID*               5998               0-1.198446336E+006.1035485423E-02+
*       -9.912487490E-02               0
GRID*               5999               0-1.189305008E+001.5985393046E-01+
*       -9.912479763E-02               0
GRID*               6000               0-1.172030598E+002.5757223345E-01+
*       -9.912510286E-02               0
GRID*               6001               0-1.146741064E+003.5353018485E-01+
*       -9.912517048E-02               0
GRID*               6002               0-1.113605333E+004.4708218110E-01+
*       -9.912466448E-02               0
GRID*               6003               0-1.072857800E+005.3756444622E-01+
*       -9.912505552E-02               0
GRID*               6004               0-1.024774016E+006.2436904332E-01+
*       -9.912538015E-02               0
GRID*               6005               0-9.696712829E-017.0692037096E-01+
*       -9.912452934E-02               0
GRID*               6006               0-9.079470580E-017.8462208515E-01+
*       -9.912501013E-02               0
GRID*               6007               0-8.400148054E-018.5695595048E-01+
*       -9.912551612E-02               0
GRID*               6008               0-7.663198941E-019.2344592400E-01+
*       -9.912443220E-02               0
GRID*               6009               0-6.874007366E-019.8360566878E-01+
*       -9.912498483E-02               0
GRID*               6010               0-6.037800800E-011.0370379909E+00+
*       -9.912560107E-02               0
GRID*               6011               0-5.160081494E-011.0833899896E+00+
*       -9.912557225E-02               0
GRID*               6012               0-4.247293346E-011.1223212864E+00+
*       -9.912496515E-02               0
GRID*               6013               0-3.305454410E-011.1535762155E+00+
*       -9.912440118E-02               0
GRID*               6014               0-2.340770676E-011.1769478875E+00+
*       -9.912557298E-02               0
GRID*               6015               0-1.360345098E-011.1922644717E+00+
*       -9.912498267E-02               0
GRID*               6016               0-3.705917239E-021.1994271017E+00+
*       -9.912444506E-02               0
GRID*               6017               06.2190328129E-021.1983867664E+00+
*       -9.912546207E-02               0
GRID*               6018               01.6099076493E-011.1891516583E+00+
*       -9.912501517E-02               0
GRID*               6019               02.5869319351E-011.1717835595E+00+
*       -9.912455996E-02               0
GRID*               6020               03.5464244757E-011.1463975611E+00+
*       -9.912531593E-02               0
GRID*               6021               04.4814828174E-011.1131767812E+00+
*       -9.912505568E-02               0
GRID*               6022               05.3859124865E-011.0723426392E+00+
*       -9.912470089E-02               0
GRID*               6023               06.2536077288E-011.0241692330E+00+
*       -9.912509823E-02               0
GRID*               6024               07.0784395128E-019.6899746103E-01+
*       -9.912509479E-02               0
GRID*               6025               07.8548581156E-019.0719992168E-01+
*       -9.912483671E-02               0
GRID*               6026               08.5775989038E-018.3919415558E-01+
*       -9.912479700E-02               0
GRID*               6027               09.2416735294E-017.6544996031E-01+
*       -9.912512801E-02               0
GRID*               6028               09.8425102819E-016.8647634143E-01+
*       -9.912493941E-02               0
GRID*               6029               01.0376044985E+006.0280658700E-01+
*       -9.912456661E-02               0
GRID*               6030               01.0838663618E+005.1500731803E-01+
*       -9.912515028E-02               0
GRID*               6031               01.1227108585E+004.2369849519E-01+
*       -9.912498765E-02               0
GRID*               6032               01.1538787242E+003.2948871810E-01+
*       -9.912449256E-02               0
GRID*               6033               01.1771587940E+002.3301494204E-01+
*       -9.912515348E-02               0
GRID*               6034               01.1923856971E+001.3496793116E-01+
*       -9.912500659E-02               0
GRID*               6035               01.1994598724E+003.5986438364E-02+
*       -9.912452262E-02               0
GRID*               6036               01.1983314898E+00-6.324979582E-02+
*       -9.912513643E-02               0
GRID*               6037               01.1890103434E+00-1.620318604E-01+
*       -9.912496380E-02               0
GRID*               6038               01.1715569308E+00-2.597182668E-01+
*       -9.912461569E-02               0
GRID*               6039               01.1460898274E+00-3.556361727E-01+
*       -9.912509275E-02               0
GRID*               6040               01.1127922841E+00-4.491025514E-01+
*       -9.912493666E-02               0
GRID*               6041               01.0718811699E+00-5.395092707E-01+
*       -9.912473658E-02               0
GRID*               6042               01.0236369047E+00-6.262321070E-01+
*       -9.912501862E-02               0
GRID*               6043               09.6840263277E-01-7.086577581E-01+
*       -9.912492386E-02               0
GRID*               6044               09.0666332186E-01-7.861051991E-01+
*       -9.912487450E-02               0
GRID*               6045               08.3874337929E-01-8.582008793E-01+
*       -9.912490446E-02               0
GRID*               6046               07.6511616326E-01-9.244438236E-01+
*       -9.912499814E-02               0
GRID*               6047               06.8627507319E-01-9.843913809E-01+
*       -9.912494127E-02               0
GRID*               6048               06.0275627121E-01-1.037633794E+00+
*       -9.912462229E-02               0
GRID*               6049               05.1512562023E-01-1.083810143E+00+
*       -9.912515294E-02               0
GRID*               6050               04.2399551456E-01-1.122598724E+00+
*       -9.912498260E-02               0
GRID*               6051               03.2997293694E-01-1.153740302E+00+
*       -9.912447562E-02               0
GRID*               6052               02.3368693190E-01-1.177025519E+00+
*       -9.912533507E-02               0
GRID*               6053               01.3582874647E-01-1.192287938E+00+
*       -9.912497236E-02               0
GRID*               6054               03.7038955889E-02-1.199427770E+00+
*       -9.912447216E-02               0
GRID*               6055               0-6.202243668E-02-1.198395467E+00+
*       -9.912548349E-02               0
GRID*               6056               0-1.606418874E-01-1.189198791E+00+
*       -9.912507284E-02               0
GRID*               6057               0-2.581672248E-01-1.171899512E+00+
*       -9.912457189E-02               0
GRID*               6058               0-3.539405238E-01-1.146614393E+00+
*       -9.912520802E-02               0
GRID*               6059               0-4.473080647E-01-1.113514615E+00+
*       -9.912467604E-02               0
GRID*               6060               0-5.376151207E-01-1.072832409E+00+
*       -9.912505495E-02               0
GRID*               6061               0-6.242564517E-01-1.024842670E+00+
*       -9.912532901E-02               0
GRID*               6062               0-7.066599239E-01-9.698612007E-01+
*       -9.912456842E-02               0
GRID*               6063               0-7.842364774E-01-9.082802114E-01+
*       -9.912494352E-02               0
GRID*               6064               0-8.564636849E-01-8.405169217E-01+
*       -9.912526144E-02               0
GRID*               6065               0-9.228702818E-01-7.670133412E-01+
*       -9.912467396E-02               0
GRID*               6066               0-1.036036553E+00-6.054973851E-01+
*       8.8549982437E-04               0
GRID*               6067               0-1.082530375E+00-5.178096581E-01+
*       8.8635588431E-04               0
GRID*               6068               0-1.121613969E+00-4.265937112E-01+
*       8.8586623258E-04               0
GRID*               6069               0-1.153025680E+00-3.324615797E-01+
*       8.8560485236E-04               0
GRID*               6070               0-1.176555982E+00-2.360397752E-01+
*       8.8635336095E-04               0
GRID*               6071               0-1.192036598E+00-1.380171850E-01+
*       8.8589981032E-04               0
GRID*               6072               0-1.199364012E+00-3.905020591E-02+
*       8.8563002785E-04               0
GRID*               6073               0-1.198488781E+006.0195794986E-02+
*       8.8624287626E-04               0
GRID*               6074               0-1.189416597E+001.5902168750E-01+
*       8.8598530730E-04               0
GRID*               6075               0-1.172209214E+002.5675808229E-01+
*       8.8567464194E-04               0
GRID*               6076               0-1.146982907E+003.5274479153E-01+
*       8.8597512740E-04               0
GRID*               6077               0-1.113910828E+004.4632056779E-01+
*       8.8610764266E-04               0
GRID*               6078               0-1.073222192E+005.3683654134E-01+
*       8.8572831827E-04               0
GRID*               6079               0-1.025192216E+006.2368218591E-01+
*       8.8563955784E-04               0
GRID*               6080               0-9.701429129E-017.0627303035E-01+
*       8.8624373182E-04               0
GRID*               6081               0-9.084660396E-017.8402110096E-01+
*       8.8578320774E-04               0
GRID*               6082               0-8.405756726E-018.5640584468E-01+
*       8.8540350662E-04               0
GRID*               6083               0-7.669203933E-019.2294728544E-01+
*       8.8636285340E-04               0
GRID*               6084               0-6.880347282E-019.8316228541E-01+
*       8.8581789476E-04               0
GRID*               6085               0-6.044420003E-011.0366523325E+00+
*       8.8524373059E-04               0
GRID*               6086               0-5.166937873E-011.0830631585E+00+
*       8.8523415909E-04               0
GRID*               6087               0-4.254331722E-011.1220546739E+00+
*       8.8584663834E-04               0
GRID*               6088               0-3.312627049E-011.1533704368E+00+
*       8.8644896404E-04               0
GRID*               6089               0-2.348020209E-011.1768034917E+00+
*       8.8526971495E-04               0
GRID*               6090               0-1.367618415E-011.1921812655E+00+
*       8.8582968489E-04               0
GRID*               6091               0-3.778412589E-021.1994044780E+00+
*       8.8636564259E-04               0
GRID*               6092               06.1471469188E-021.1984238715E+00+
*       8.8543722878E-04               0
GRID*               6093               01.6028512010E-011.1892469819E+00+
*       8.8579299502E-04               0
GRID*               6094               02.5800444885E-011.1719354007E+00+
*       8.8623825526E-04               0
GRID*               6095               03.5397252048E-011.1466046094E+00+
*       8.8565840937E-04               0
GRID*               6096               04.4750588685E-011.1134351894E+00+
*       8.8574648338E-04               0
GRID*               6097               05.3797825116E-011.0726503023E+00+
*       8.8609891135E-04               0
GRID*               6098               06.2477744287E-011.0245251915E+00+
*       8.8597310538E-04               0
GRID*               6099               07.0730023888E-019.6939442174E-01+
*       8.8570191942E-04               0
GRID*               6100               07.8498147688E-019.0763634444E-01+
*       8.8597038718E-04               0
GRID*               6101               08.5729497511E-018.3966906388E-01+
*       8.8624626682E-04               0
GRID*               6102               09.2374978779E-017.6595385333E-01+
*       8.8566662400E-04               0
GRID*               6103               09.8387996564E-016.8700804834E-01+
*       8.8587392296E-04               0
GRID*               6104               01.0372806176E+006.0336369514E-01+
*       8.8636072692E-04               0
GRID*               6105               01.0835932303E+005.1558179667E-01+
*       8.8564787512E-04               0
GRID*               6106               01.1224883370E+004.2428766632E-01+
*       8.8582616026E-04               0
GRID*               6107               01.1537068778E+003.3008988981E-01+
*       8.8636434999E-04               0
GRID*               6108               01.1770386120E+002.3362140843E-01+
*       8.8565455180E-04               0
GRID*               6109               01.1923166524E+001.3557647968E-01+
*       8.8579762870E-04               0
GRID*               6110               01.1994415210E+003.6593082189E-02+
*       8.8629725701E-04               0
GRID*               6111               01.1983630503E+00-6.264971419E-02+
*       8.8569022096E-04               0
GRID*               6112               01.1890905999E+00-1.614419028E-01+
*       8.8583739950E-04               0
GRID*               6113               01.1716843249E+00-2.591429383E-01+
*       8.8618922716E-04               0
GRID*               6114               01.1462628188E+00-3.550783093E-01+
*       8.8576172220E-04               0
GRID*               6115               01.1130085679E+00-4.485663173E-01+
*       8.8586535411E-04               0
GRID*               6116               01.0721382746E+00-5.389981613E-01+
*       8.8606688559E-04               0
GRID*               6117               01.0239331070E+00-6.257477431E-01+
*       8.8587420708E-04               0
GRID*               6118               09.6873401587E-01-7.082047373E-01+
*       8.8587646718E-04               0
GRID*               6119               09.0704062581E-01-7.856698187E-01+
*       8.8593203632E-04               0
GRID*               6120               08.3916813279E-01-8.577855506E-01+
*       8.8608149808E-04               0
GRID*               6121               07.6558313414E-01-9.240571664E-01+
*       8.8579933453E-04               0
GRID*               6122               06.8678452173E-01-9.840360159E-01+
*       8.8587209881E-04               0
GRID*               6123               06.0330813466E-01-1.037313002E+00+
*       8.8631086523E-04               0
GRID*               6124               05.1571319806E-01-1.083530700E+00+
*       8.8564554130E-04               0
GRID*               6125               04.2461758905E-01-1.122363576E+00+
*       8.8583077538E-04               0
GRID*               6126               03.3062756726E-01-1.153552862E+00+
*       8.8638159115E-04               0
GRID*               6127               02.3436819527E-01-1.176890083E+00+
*       8.8548629050E-04               0
GRID*               6128               01.3653324740E-01-1.192207472E+00+
*       8.8583831143E-04               0
GRID*               6129               03.7761875732E-02-1.199405222E+00+
*       8.8634343397E-04               0
GRID*               6130               0-6.128496119E-02-1.198433423E+00+
*       8.8541574470E-04               0
GRID*               6131               0-1.598974983E-01-1.189299107E+00+
*       8.8573296148E-04               0
GRID*               6132               0-2.574201244E-01-1.172063850E+00+
*       8.8622529760E-04               0
GRID*               6133               0-3.532014752E-01-1.146842258E+00+
*       8.8600475591E-04               0
GRID*               6134               0-4.465715929E-01-1.113810210E+00+
*       8.8609783510E-04               0
GRID*               6135               0-5.368928616E-01-1.073194019E+00+
*       8.8572907359E-04               0
GRID*               6136               0-6.235564549E-01-1.025268766E+00+
*       8.8563836581E-04               0
GRID*               6137               0-7.059838778E-01-9.703534432E-01+
*       8.8621258436E-04               0
GRID*               6138               0-7.835925073E-01-9.088358257E-01+
*       8.8586177715E-04               0
GRID*               6139               0-8.558577246E-01-8.411339835E-01+
*       8.8558097602E-04               0
GRID*               6140               0-9.223079123E-01-7.676894834E-01+
*       8.8614587195E-04               0
GRID*               6141               0-1.035588143E+00-6.062640543E-01+
*       1.0087453668E-01               0
GRID*               6142               0-1.082149452E+00-5.186052668E-01+
*       1.0087535239E-01               0
GRID*               6143               0-1.121302242E+00-4.274124053E-01+
*       1.0087486412E-01               0
GRID*               6144               0-1.152784244E+00-3.332978612E-01+
*       1.0087460147E-01               0
GRID*               6145               0-1.176385925E+00-2.368858071E-01+
*       1.0087540659E-01               0
GRID*               6146               0-1.191937608E+00-1.388695652E-01+
*       1.0087488778E-01               0
GRID*               6147               0-1.199335973E+00-3.990186003E-02+
*       1.0087460913E-01               0
GRID*               6148               0-1.198530750E+005.9353982430E-02+
*       1.0087539395E-01               0
GRID*               6149               0-1.189527574E+001.5818957541E-01+
*       1.0087495765E-01               0
GRID*               6150               0-1.172387208E+002.5594408021E-01+
*       1.0087464634E-01               0
GRID*               6151               0-1.147224152E+003.5195939508E-01+
*       1.0087527892E-01               0
GRID*               6152               0-1.114215753E+004.4555887645E-01+
*       1.0087506462E-01               0
GRID*               6153               0-1.073586003E+005.3610856628E-01+
*       1.0087470110E-01               0
GRID*               6154               0-1.025608537E+006.2299738721E-01+
*       1.0087501846E-01               0
GRID*               6155               0-9.706141266E-017.0562536558E-01+
*       1.0087519098E-01               0
GRID*               6156               0-9.089845233E-017.8341988850E-01+
*       1.0087476266E-01               0
GRID*               6157               0-8.411346401E-018.5585690729E-01+
*       1.0087465164E-01               0
GRID*               6158               0-7.675207986E-019.2244808217E-01+
*       1.0087531289E-01               0
GRID*               6159               0-6.886683189E-019.8271857188E-01+
*       1.0087480607E-01               0
GRID*               6160               0-6.051022938E-011.0362670828E+00+
*       1.0087437937E-01               0
GRID*               6161               0-5.173796311E-011.0827357114E+00+
*       1.0087427248E-01               0
GRID*               6162               0-4.261366988E-011.1217876733E+00+
*       1.0087484637E-01               0
GRID*               6163               0-3.319791117E-011.1531644360E+00+
*       1.0087544380E-01               0
GRID*               6164               0-2.355275962E-011.1766585218E+00+
*       1.0087436250E-01               0
GRID*               6165               0-1.374889790E-011.1920976323E+00+
*       1.0087483066E-01               0
GRID*               6166               0-3.850857391E-021.1993814412E+00+
*       1.0087534044E-01               0
GRID*               6167               06.0751536975E-021.1984606126E+00+
*       1.0087460818E-01               0
GRID*               6168               01.5957953216E-011.1893418728E+00+
*       1.0087479157E-01               0
GRID*               6169               02.5731593601E-011.1720867722E+00+
*       1.0087521203E-01               0
GRID*               6170               03.5330109193E-011.1468116988E+00+
*       1.0087492950E-01               0
GRID*               6171               04.4686341717E-011.1136931995E+00+
*       1.0087474111E-01               0
GRID*               6172               05.3736528704E-011.0729575136E+00+
*       1.0087508064E-01               0
GRID*               6173               06.2419366614E-011.0248809676E+00+
*       1.0087523296E-01               0
GRID*               6174               07.0675633157E-019.6979106094E-01+
*       1.0087469395E-01               0
GRID*               6175               07.8447703883E-019.0807236848E-01+
*       1.0087496254E-01               0
GRID*               6176               08.5683093895E-018.4014256582E-01+
*       1.0087537983E-01               0
GRID*               6177               09.2333193002E-017.6645754646E-01+
*       1.0087466050E-01               0
GRID*               6178               09.8350870468E-016.8753942832E-01+
*       1.0087487395E-01               0
GRID*               6179               01.0369569899E+006.0391970373E-01+
*       1.0087541494E-01               0
GRID*               6180               01.0833197464E+005.1615624152E-01+
*       1.0087465045E-01               0
GRID*               6181               01.1222655546E+004.2487659108E-01+
*       1.0087482750E-01               0
GRID*               6182               01.1535349186E+003.3069030656E-01+
*       1.0087537327E-01               0
GRID*               6183               01.1769180760E+002.3422804524E-01+
*       1.0087467374E-01               0
GRID*               6184               01.1922473817E+001.3618428962E-01+
*       1.0087480202E-01               0
GRID*               6185               01.1994228835E+003.7199278549E-02+
*       1.0087528561E-01               0
GRID*               6186               01.1983943335E+00-6.204923564E-02+
*       1.0087473622E-01               0
GRID*               6187               01.1891705442E+00-1.608520326E-01+
*       1.0087482654E-01               0
GRID*               6188               01.1718113800E+00-2.585678211E-01+
*       1.0087517246E-01               0
GRID*               6189               01.1464357054E+00-3.545198260E-01+
*       1.0087484529E-01               0
GRID*               6190               01.1132245578E+00-4.480300650E-01+
*       1.0087485737E-01               0
GRID*               6191               01.0723950516E+00-5.384871008E-01+
*       1.0087505393E-01               0
GRID*               6192               01.0242294817E+00-6.252625763E-01+
*       1.0087500724E-01               0
GRID*               6193               09.6906514927E-01-7.077516130E-01+
*       1.0087486846E-01               0
GRID*               6194               09.0741762113E-01-7.852343737E-01+
*       1.0087492450E-01               0
GRID*               6195               08.3959275559E-01-8.573699373E-01+
*       1.0087523405E-01               0
GRID*               6196               07.6604990121E-01-9.236702826E-01+
*       1.0087479220E-01               0
GRID*               6197               06.8729366620E-01-9.836804716E-01+
*       1.0087487233E-01               0
GRID*               6198               06.0385890216E-01-1.036992467E+00+
*       1.0087537271E-01               0
GRID*               6199               05.1630072968E-01-1.083250893E+00+
*       1.0087464825E-01               0
GRID*               6200               04.2523939676E-01-1.122128134E+00+
*       1.0087483167E-01               0
GRID*               6201               03.3128140177E-01-1.153365258E+00+
*       1.0087538887E-01               0
GRID*               6202               02.3504978905E-01-1.176754179E+00+
*       1.0087453316E-01               0
GRID*               6203               01.3723755304E-01-1.192126606E+00+
*       1.0087483697E-01               0
GRID*               6204               03.8484292836E-02-1.199382263E+00+
*       1.0087532395E-01               0
GRID*               6205               0-6.054643472E-02-1.198470991E+00+
*       1.0087458529E-01               0
GRID*               6206               0-1.591531637E-01-1.189398943E+00+
*       1.0087472956E-01               0
GRID*               6207               0-2.566732580E-01-1.172227644E+00+
*       1.0087519737E-01               0
GRID*               6208               0-3.524612152E-01-1.147069968E+00+
*       1.0087530664E-01               0
GRID*               6209               0-4.458350468E-01-1.114105271E+00+
*       1.0087505624E-01               0
GRID*               6210               0-5.361705347E-01-1.073555058E+00+
*       1.0087470203E-01               0
GRID*               6211               0-6.228581801E-01-1.025693165E+00+
*       1.0087493908E-01               0
GRID*               6212               0-7.053074808E-01-9.708452285E-01+
*       1.0087516815E-01               0
GRID*               6213               0-7.829482777E-01-9.093908679E-01+
*       1.0087485415E-01               0
GRID*               6214               0-8.552522092E-01-8.417497170E-01+
*       1.0087467999E-01               0
GRID*               6215               0-9.217448788E-01-7.683654327E-01+
*       1.0087512369E-01               0
GRID*               6216               0-1.035139710E+00-6.070294872E-01+
*       2.0084209387E-01               0
GRID*               6217               0-1.081767798E+00-5.194009230E-01+
*       2.0084277899E-01               0
GRID*               6218               0-1.120989984E+00-4.282306951E-01+
*       2.0084232745E-01               0
GRID*               6219               0-1.152542424E+00-3.341332408E-01+
*       2.0084210072E-01               0
GRID*               6220               0-1.176215114E+00-2.377324961E-01+
*       2.0084286103E-01               0
GRID*               6221               0-1.191838033E+00-1.397216581E-01+
*       2.0084234328E-01               0
GRID*               6222               0-1.199307358E+00-4.075296665E-02+
*       2.0084207651E-01               0
GRID*               6223               0-1.198572206E+005.8510737182E-02+
*       2.0084290451E-01               0
GRID*               6224               0-1.189637938E+001.5735760720E-01+
*       2.0084239822E-01               0
GRID*               6225               0-1.172564569E+002.5513030376E-01+
*       2.0084209538E-01               0
GRID*               6226               0-1.147465512E+003.5117169153E-01+
*       2.0084288372E-01               0
GRID*               6227               0-1.114520087E+004.4479715238E-01+
*       2.0084248778E-01               0
GRID*               6228               0-1.073949218E+005.3538055871E-01+
*       2.0084214358E-01               0
GRID*               6229               0-1.026024855E+006.2231153422E-01+
*       2.0084277093E-01               0
GRID*               6230               0-9.710848561E-017.0497746418E-01+
*       2.0084259807E-01               0
GRID*               6231               0-9.095025001E-017.8281846032E-01+
*       2.0084220726E-01               0
GRID*               6232               0-8.416914562E-018.5530938890E-01+
*       2.0084252590E-01               0
GRID*               6233               0-7.681209501E-019.2194843980E-01+
*       2.0084271026E-01               0
GRID*               6234               0-6.893015088E-019.8227452845E-01+
*       2.0084225762E-01               0
GRID*               6235               0-6.057603562E-011.0358826077E+00+
*       2.0084213428E-01               0
GRID*               6236               0-5.180658547E-011.0824075703E+00+
*       2.0084183409E-01               0
GRID*               6237               0-4.268399103E-011.1215202867E+00+
*       2.0084231179E-01               0
GRID*               6238               0-3.326947916E-011.1529581726E+00+
*       2.0084287077E-01               0
GRID*               6239               0-2.362540542E-011.1765129299E+00+
*       2.0084200181E-01               0
GRID*               6240               0-1.382159195E-011.1920135725E+00+
*       2.0084229774E-01               0
GRID*               6241               0-3.923259522E-021.1993579869E+00+
*       2.0084276255E-01               0
GRID*               6242               06.0030178627E-021.1984970117E+00+
*       2.0084235302E-01               0
GRID*               6243               01.5887400226E-011.1894363312E+00+
*       2.0084225816E-01               0
GRID*               6244               02.5662761638E-011.1722376815E+00+
*       2.0084264176E-01               0
GRID*               6245               03.5262928235E-011.1470184773E+00+
*       2.0084267397E-01               0
GRID*               6246               04.4622087063E-011.1139508127E+00+
*       2.0084220605E-01               0
GRID*               6247               05.3675234146E-011.0732642800E+00+
*       2.0084252310E-01               0
GRID*               6248               06.2361127385E-011.0252354481E+00+
*       2.0084284309E-01               0
GRID*               6249               07.0621222191E-019.7018738455E-01+
*       2.0084215960E-01               0
GRID*               6250               07.8397249353E-019.0850799726E-01+
*       2.0084241779E-01               0
GRID*               6251               08.5636754225E-018.4061490379E-01+
*       2.0084290385E-01               0
GRID*               6252               09.2291376626E-017.6696105695E-01+
*       2.0084213269E-01               0
GRID*               6253               09.8313724519E-016.8807048203E-01+
*       2.0084233840E-01               0
GRID*               6254               01.0366335022E+006.0447480340E-01+
*       2.0084288807E-01               0
GRID*               6255               01.0830458937E+005.1673068964E-01+
*       2.0084213767E-01               0
GRID*               6256               01.1220425111E+004.2546527105E-01+
*       2.0084229421E-01               0
GRID*               6257               01.1533628077E+003.3129009745E-01+
*       2.0084282050E-01               0
GRID*               6258               01.1767971741E+002.3483491815E-01+
*       2.0084218586E-01               0
GRID*               6259               01.1921778188E+001.3679194332E-01+
*       2.0084227174E-01               0
GRID*               6260               01.1994039561E+003.7805102142E-02+
*       2.0084272480E-01               0
GRID*               6261               01.1984253455E+00-6.144825928E-02+
*       2.0084228525E-01               0
GRID*               6262               01.1892501742E+00-1.602622624E-01+
*       2.0084228047E-01               0
GRID*               6263               01.1719381033E+00-2.579928795E-01+
*       2.0084261394E-01               0
GRID*               6264               01.1466085302E+00-3.539605854E-01+
*       2.0084244393E-01               0
GRID*               6265               01.1134402503E+00-4.474938024E-01+
*       2.0084231644E-01               0
GRID*               6266               01.0726515074E+00-5.379760760E-01+
*       2.0084250316E-01               0
GRID*               6267               01.0245261634E+00-6.247763809E-01+
*       2.0084264241E-01               0
GRID*               6268               09.6939602866E-01-7.072983904E-01+
*       2.0084232928E-01               0
GRID*               6269               09.0779431087E-01-7.847988605E-01+
*       2.0084238087E-01               0
GRID*               6270               08.4001626926E-01-8.569550025E-01+
*       2.0084278345E-01               0
GRID*               6271               07.6651646628E-01-9.232831709E-01+
*       2.0084225821E-01               0
GRID*               6272               06.8780250731E-01-9.833247477E-01+
*       2.0084233717E-01               0
GRID*               6273               06.0440876284E-01-1.036672077E+00+
*       2.0084285474E-01               0
GRID*               6274               05.1688825077E-01-1.082970707E+00+
*       2.0084213531E-01               0
GRID*               6275               04.2586110025E-01-1.121892337E+00+
*       2.0084229805E-01               0
GRID*               6276               03.3193457065E-01-1.153177452E+00+
*       2.0084283282E-01               0
GRID*               6277               02.3573184885E-01-1.176617784E+00+
*       2.0084209239E-01               0
GRID*               6278               01.3794165752E-01-1.192045342E+00+
*       2.0084230088E-01               0
GRID*               6279               03.9206284937E-02-1.199358888E+00+
*       2.0084275237E-01               0
GRID*               6280               0-5.980651252E-02-1.198508193E+00+
*       2.0084232681E-01               0
GRID*               6281               0-1.584088816E-01-1.189498300E+00+
*       2.0084219479E-01               0
GRID*               6282               0-2.559265858E-01-1.172390900E+00+
*       2.0084262487E-01               0
GRID*               6283               0-3.517186789E-01-1.147297855E+00+
*       2.0084290649E-01               0
GRID*               6284               0-4.450984725E-01-1.114399779E+00+
*       2.0084248057E-01               0
GRID*               6285               0-5.354481770E-01-1.073915508E+00+
*       2.0084214461E-01               0
GRID*               6286               0-6.221602561E-01-1.026116686E+00+
*       2.0084271001E-01               0
GRID*               6287               0-7.046308200E-01-9.713364897E-01+
*       2.0084258342E-01               0
GRID*               6288               0-7.823037911E-01-9.099453365E-01+
*       2.0084231175E-01               0
GRID*               6289               0-8.546474536E-01-8.423638086E-01+
*       2.0084234188E-01               0
GRID*               6290               0-9.211813062E-01-7.690410325E-01+
*       2.0084255008E-01               0
GRID*               6291               0-1.034691452E+00-6.077933567E-01+
*       3.0078900317E-01               0
GRID*               6292               0-1.081385510E+00-5.201964173E-01+
*       3.0078945827E-01               0
GRID*               6293               0-1.120677194E+00-4.290485866E-01+
*       3.0078906354E-01               0
GRID*               6294               0-1.152300301E+00-3.349674581E-01+
*       3.0078892792E-01               0
GRID*               6295               0-1.176043616E+00-2.385794867E-01+
*       3.0078954818E-01               0
GRID*               6296               0-1.191737871E+00-1.405734743E-01+
*       3.0078907339E-01               0
GRID*               6297               0-1.199278178E+00-4.160334280E-02+
*       3.0078885200E-01               0
GRID*               6298               0-1.198613117E+005.7666593612E-02+
*       3.0078961804E-01               0
GRID*               6299               0-1.189747689E+001.5652578339E-01+
*       3.0078911486E-01               0
GRID*               6300               0-1.172741275E+002.5431686381E-01+
*       3.0078883713E-01               0
GRID*               6301               0-1.147706764E+003.5038240594E-01+
*       3.0078964893E-01               0
GRID*               6302               0-1.114823820E+004.4403541962E-01+
*       3.0078918671E-01               0
GRID*               6303               0-1.074311812E+005.3465257339E-01+
*       3.0078886764E-01               0
GRID*               6304               0-1.026441898E+006.2162342217E-01+
*       3.0078962507E-01               0
GRID*               6305               0-9.715550577E-017.0432938212E-01+
*       3.0078927773E-01               0
GRID*               6306               0-9.100199560E-017.8221683501E-01+
*       3.0078892641E-01               0
GRID*               6307               0-8.422492636E-018.5476014160E-01+
*       3.0078951848E-01               0
GRID*               6308               0-7.687207389E-019.2144844422E-01+
*       3.0078937262E-01               0
GRID*               6309               0-6.899342980E-019.8183015590E-01+
*       3.0078898040E-01               0
GRID*               6310               0-6.064165680E-011.0354986787E+00+
*       3.0078928803E-01               0
GRID*               6311               0-5.187527093E-011.0820786221E+00+
*       3.0078874577E-01               0
GRID*               6312               0-4.275428082E-011.1212525144E+00+
*       3.0078904994E-01               0
GRID*               6313               0-3.334098595E-011.1527516116E+00+
*       3.0078954539E-01               0
GRID*               6314               0-2.369817756E-011.1763666459E+00+
*       3.0078902200E-01               0
GRID*               6315               0-1.389426629E-011.1919290862E+00+
*       3.0078903792E-01               0
GRID*               6316               0-3.995626273E-021.1993341112E+00+
*       3.0078944409E-01               0
GRID*               6317               05.9308642111E-021.1985329896E+00+
*       3.0078937771E-01               0
GRID*               6318               01.5816852951E-011.1895303572E+00+
*       3.0078899981E-01               0
GRID*               6319               02.5593945015E-011.1723881364E+00+
*       3.0078933727E-01               0
GRID*               6320               03.5195931526E-011.1472242516E+00+
*       3.0078955921E-01               0
GRID*               6321               04.4557824350E-011.1142080307E+00+
*       3.0078894859E-01               0
GRID*               6322               05.3613939560E-011.0735706107E+00+
*       3.0078923473E-01               0
GRID*               6323               06.2302993396E-011.0255888358E+00+
*       3.0078963686E-01               0
GRID*               6324               07.0566789978E-019.7058340046E-01+
*       3.0078890675E-01               0
GRID*               6325               07.8346783327E-019.0894323747E-01+
*       3.0078914386E-01               0
GRID*               6326               08.5590459315E-018.4108627197E-01+
*       3.0078964335E-01               0
GRID*               6327               09.2249527825E-017.6746440823E-01+
*       3.0078889215E-01               0
GRID*               6328               09.8276558454E-016.8860121367E-01+
*       3.0078907466E-01               0
GRID*               6329               01.0363100618E+006.0502915016E-01+
*       3.0078959893E-01               0
GRID*               6330               01.0827716488E+005.1730519287E-01+
*       3.0078892014E-01               0
GRID*               6331               01.1218191091E+004.2605396314E-01+
*       3.0078903379E-01               0
GRID*               6332               01.1531905125E+003.3188937170E-01+
*       3.0078952036E-01               0
GRID*               6333               01.1766758890E+002.3544212164E-01+
*       3.0078900383E-01               0
GRID*               6334               01.1921079619E+001.3739944045E-01+
*       3.0078901415E-01               0
GRID*               6335               01.1993847353E+003.8410619760E-02+
*       3.0078942608E-01               0
GRID*               6336               01.1984560953E+00-6.084663666E-02+
*       3.0078915322E-01               0
GRID*               6337               01.1893294878E+00-1.596726042E-01+
*       3.0078900542E-01               0
GRID*               6338               01.1720645020E+00-2.574180782E-01+
*       3.0078932297E-01               0
GRID*               6339               01.1467813845E+00-3.534002835E-01+
*       3.0078936004E-01               0
GRID*               6340               01.1136556421E+00-4.469575369E-01+
*       3.0078904908E-01               0
GRID*               6341               01.0729076497E+00-5.374650709E-01+
*       3.0078922276E-01               0
GRID*               6342               01.0248220655E+00-6.242909278E-01+
*       3.0078948240E-01               0
GRID*               6343               09.6972664986E-01-7.068450749E-01+
*       3.0078906550E-01               0
GRID*               6344               09.0817070067E-01-7.843632728E-01+
*       3.0078910878E-01               0
GRID*               6345               08.4043886367E-01-8.565405604E-01+
*       3.0078955277E-01               0
GRID*               6346               07.6698283208E-01-9.228958291E-01+
*       3.0078900457E-01               0
GRID*               6347               06.8831104911E-01-9.829688416E-01+
*       3.0078907400E-01               0
GRID*               6348               06.0495787102E-01-1.036351741E+00+
*       3.0078957529E-01               0
GRID*               6349               05.1747581129E-01-1.082690118E+00+
*       3.0078891719E-01               0
GRID*               6350               04.2648268376E-01-1.121656192E+00+
*       3.0078903740E-01               0
GRID*               6351               03.3258718512E-01-1.152989410E+00+
*       3.0078952811E-01               0
GRID*               6352               02.3641457118E-01-1.176480860E+00+
*       3.0078898425E-01               0
GRID*               6353               01.3864555752E-01-1.191963678E+00+
*       3.0078903682E-01               0
GRID*               6354               03.9927923736E-02-1.199335094E+00+
*       3.0078944059E-01               0
GRID*               6355               0-5.906636642E-02-1.198544953E+00+
*       3.0078935729E-01               0
GRID*               6356               0-1.576646476E-01-1.189597178E+00+
*       3.0078893594E-01               0
GRID*               6357               0-2.551800665E-01-1.172553628E+00+
*       3.0078931776E-01               0
GRID*               6358               0-3.509745784E-01-1.147525698E+00+
*       3.0078966419E-01               0
GRID*               6359               0-4.443618951E-01-1.114693722E+00+
*       3.0078918048E-01               0
GRID*               6360               0-5.347258426E-01-1.074275346E+00+
*       3.0078886866E-01               0
GRID*               6361               0-6.214600346E-01-1.026540927E+00+
*       3.0078958383E-01               0
GRID*               6362               0-7.039539505E-01-9.718271841E-01+
*       3.0078927077E-01               0
GRID*               6363               0-7.816590491E-01-9.104992314E-01+
*       3.0078904247E-01               0
GRID*               6364               0-8.540436048E-01-8.429761027E-01+
*       3.0078936095E-01               0
GRID*               6365               0-9.206172789E-01-7.697161770E-01+
*       3.0078924133E-01               0
GRID*               6366               0-1.034243619E+00-6.085552387E-01+
*       4.0071659118E-01               0
GRID*               6367               0-1.081002654E+00-5.209916032E-01+
*       4.0071671776E-01               0
GRID*               6368               0-1.120363868E+00-4.298660902E-01+
*       4.0071638876E-01               0
GRID*               6369               0-1.152058005E+00-3.358001010E-01+
*       4.0071642792E-01               0
GRID*               6370               0-1.175871480E+00-2.394265214E-01+
*       4.0071680241E-01               0
GRID*               6371               0-1.191637120E+00-1.414250301E-01+
*       4.0071639422E-01               0
GRID*               6372               0-1.199248453E+00-4.245269923E-02+
*       4.0071627180E-01               0
GRID*               6373               0-1.198653463E+005.6821947317E-02+
*       4.0071687816E-01               0
GRID*               6374               0-1.189856828E+001.5569409483E-01+
*       4.0071642412E-01               0
GRID*               6375               0-1.172917294E+002.5350393635E-01+
*       4.0071620075E-01               0
GRID*               6376               0-1.147947741E+003.4959208344E-01+
*       4.0071693053E-01               0
GRID*               6377               0-1.115126947E+004.4327368652E-01+
*       4.0071647921E-01               0
GRID*               6378               0-1.074673745E+005.3392469851E-01+
*       4.0071619704E-01               0
GRID*               6379               0-1.026859259E+006.2093373045E-01+
*       4.0071695283E-01               0
GRID*               6380               0-9.720247054E-017.0368115284E-01+
*       4.0071655009E-01               0
GRID*               6381               0-9.105368675E-017.8161504421E-01+
*       4.0071624002E-01               0
GRID*               6382               0-8.428083568E-018.5420887317E-01+
*       4.0071692522E-01               0
GRID*               6383               0-7.693200908E-019.2094815351E-01+
*       4.0071662380E-01               0
GRID*               6384               0-6.905666832E-019.8138545771E-01+
*       4.0071629187E-01               0
GRID*               6385               0-6.070749197E-011.0351128826E+00+
*       4.0071682320E-01               0
GRID*               6386               0-5.194405906E-011.0817486884E+00+
*       4.0071635450E-01               0
GRID*               6387               0-4.282453981E-011.1209843546E+00+
*       4.0071637702E-01               0
GRID*               6388               0-3.341244243E-011.1525447193E+00+
*       4.0071679161E-01               0
GRID*               6389               0-2.377093332E-011.1762199290E+00+
*       4.0071662937E-01               0
GRID*               6390               0-1.396692125E-011.1918441728E+00+
*       4.0071636721E-01               0
GRID*               6391               0-4.067964919E-021.1993098103E+00+
*       4.0071670600E-01               0
GRID*               6392               05.8589344136E-021.1985683999E+00+
*       4.0071684231E-01               0
GRID*               6393               01.5746311069E-011.1896239513E+00+
*       4.0071633259E-01               0
GRID*               6394               02.5525139382E-011.1725381455E+00+
*       4.0071661745E-01               0
GRID*               6395               03.5129078839E-011.1474291484E+00+
*       4.0071693137E-01               0
GRID*               6396               04.4493552946E-011.1144648564E+00+
*       4.0071628504E-01               0
GRID*               6397               05.3552642593E-011.0738765168E+00+
*       4.0071653318E-01               0
GRID*               6398               06.2244936250E-011.0259413045E+00+
*       4.0071695253E-01               0
GRID*               6399               07.0512334967E-019.7097912065E-01+
*       4.0071625254E-01               0
GRID*               6400               07.8296304639E-019.0937809911E-01+
*       4.0071645767E-01               0
GRID*               6401               08.5544192641E-018.4155683763E-01+
*       4.0071692971E-01               0
GRID*               6402               09.2207643772E-017.6796763640E-01+
*       4.0071625771E-01               0
GRID*               6403               09.8239371751E-016.8913163097E-01+
*       4.0071639924E-01               0
GRID*               6404               01.0359865870E+006.0558288161E-01+
*       4.0071687378E-01               0
GRID*               6405               01.0824969750E+005.1787983298E-01+
*       4.0071631941E-01               0
GRID*               6406               01.1215954297E+004.2664245406E-01+
*       4.0071636268E-01               0
GRID*               6407               01.1530180027E+003.3248822915E-01+
*       4.0071679546E-01               0
GRID*               6408               01.1765541932E+002.3604980725E-01+
*       4.0071645299E-01               0
GRID*               6409               01.1920378095E+001.3800678577E-01+
*       4.0071634567E-01               0
GRID*               6410               01.1993652176E+003.9015895918E-02+
*       4.0071670944E-01               0
GRID*               6411               01.1984865984E+00-6.024402749E-02+
*       4.0071665899E-01               0
GRID*               6412               01.1894084207E+00-1.590835418E-01+
*       4.0071632887E-01               0
GRID*               6413               01.1721905836E+00-2.568433798E-01+
*       4.0071661787E-01               0
GRID*               6414               01.1469536796E+00-3.528407810E-01+
*       4.0071679560E-01               0
GRID*               6415               01.1138707303E+00-4.464212746E-01+
*       4.0071637074E-01               0
GRID*               6416               01.0731634879E+00-5.369540662E-01+
*       4.0071653003E-01               0
GRID*               6417               01.0251171277E+00-6.238063208E-01+
*       4.0071684941E-01               0
GRID*               6418               09.7005700909E-01-7.063916710E-01+
*       4.0071639262E-01               0
GRID*               6419               09.0854679882E-01-7.839276009E-01+
*       4.0071642498E-01               0
GRID*               6420               08.4086070047E-01-8.561264530E-01+
*       4.0071687162E-01               0
GRID*               6421               07.6744900412E-01-9.225082530E-01+
*       4.0071634757E-01               0
GRID*               6422               06.8881929891E-01-9.826127486E-01+
*       4.0071639932E-01               0
GRID*               6423               06.0550636245E-01-1.036031378E+00+
*       4.0071686022E-01               0
GRID*               6424               05.1806349010E-01-1.082409092E+00+
*       4.0071631521E-01               0
GRID*               6425               04.2710401642E-01-1.121419747E+00+
*       4.0071636600E-01               0
GRID*               6426               03.3323934800E-01-1.152801102E+00+
*       4.0071679769E-01               0
GRID*               6427               02.3709829668E-01-1.176343345E+00+
*       4.0071654381E-01               0
GRID*               6428               01.3934925215E-01-1.191881614E+00+
*       4.0071636055E-01               0
GRID*               6429               04.0649280626E-02-1.199310877E+00+
*       4.0071670931E-01               0
GRID*               6430               0-5.832844776E-02-1.198581121E+00+
*       4.0071682874E-01               0
GRID*               6431               0-1.569204540E-01-1.189695580E+00+
*       4.0071626934E-01               0
GRID*               6432               0-2.544336545E-01-1.172715836E+00+
*       4.0071659511E-01               0
GRID*               6433               0-3.502294529E-01-1.147753331E+00+
*       4.0071693633E-01               0
GRID*               6434               0-4.436253241E-01-1.114987097E+00+
*       4.0071647384E-01               0
GRID*               6435               0-5.340036183E-01-1.074634534E+00+
*       4.0071619782E-01               0
GRID*               6436               0-6.207581782E-01-1.026965491E+00+
*       4.0071693096E-01               0
GRID*               6437               0-7.032769049E-01-9.723172866E-01+
*       4.0071655004E-01               0
GRID*               6438               0-7.810140536E-01-9.110525520E-01+
*       4.0071636359E-01               0
GRID*               6439               0-8.534381461E-01-8.435890992E-01+
*       4.0071683238E-01               0
GRID*               6440               0-9.200528525E-01-7.703907965E-01+
*       4.0071652023E-01               0
GRID*               6441               0-1.033794558E+00-6.093178341E-01+
*       5.0062644378E-01               0
GRID*               6442               0-1.080619278E+00-5.217863797E-01+
*       5.0062635821E-01               0
GRID*               6443               0-1.120050001E+00-4.306832202E-01+
*       5.0062609570E-01               0
GRID*               6444               0-1.151815573E+00-3.366310071E-01+
*       5.0062637769E-01               0
GRID*               6445               0-1.175698741E+00-2.402734131E-01+
*       5.0062642982E-01               0
GRID*               6446               0-1.191535779E+00-1.422763462E-01+
*       5.0062609804E-01               0
GRID*               6447               0-1.199218214E+00-4.330053123E-02+
*       5.0062616267E-01               0
GRID*               6448               0-1.198693227E+005.5977094586E-02+
*       5.0062649825E-01               0
GRID*               6449               0-1.189965358E+001.5486252477E-01+
*       5.0062611848E-01               0
GRID*               6450               0-1.173092572E+002.5269183005E-01+
*       5.0062600087E-01               0
GRID*               6451               0-1.148188314E+003.4880114076E-01+
*       5.0062655182E-01               0
GRID*               6452               0-1.115429470E+004.4251194941E-01+
*       5.0062615863E-01               0
GRID*               6453               0-1.075034949E+005.3319709135E-01+
*       5.0062593714E-01               0
GRID*               6454               0-1.027276620E+006.2024298636E-01+
*       5.0062659035E-01               0
GRID*               6455               0-9.724937859E-017.0303279293E-01+
*       5.0062621024E-01               0
GRID*               6456               0-9.110531889E-017.8101314777E-01+
*       5.0062594696E-01               0
GRID*               6457               0-8.433681406E-018.5365618129E-01+
*       5.0062659914E-01               0
GRID*               6458               0-7.699189576E-019.2044760539E-01+
*       5.0062626177E-01               0
GRID*               6459               0-6.911986522E-019.8094044470E-01+
*       5.0062598681E-01               0
GRID*               6460               0-6.077349915E-011.0347254734E+00+
*       5.0062656608E-01               0
GRID*               6461               0-5.201278238E-011.0814185263E+00+
*       5.0062632438E-01               0
GRID*               6462               0-4.289476904E-011.1207158041E+00+
*       5.0062608549E-01               0
GRID*               6463               0-3.348385964E-011.1523374619E+00+
*       5.0062640937E-01               0
GRID*               6464               0-2.384343712E-011.1760732122E+00+
*       5.0062645227E-01               0
GRID*               6465               0-1.403955743E-011.1917588316E+00+
*       5.0062607777E-01               0
GRID*               6466               0-4.140283066E-021.1992850802E+00+
*       5.0062634537E-01               0
GRID*               6467               05.7871789352E-021.1986032737E+00+
*       5.0062657461E-01               0
GRID*               6468               01.5675774020E-011.1897171142E+00+
*       5.0062604864E-01               0
GRID*               6469               02.5456339879E-011.1726877185E+00+
*       5.0062627753E-01               0
GRID*               6470               03.5062331319E-011.1476332899E+00+
*       5.0062660998E-01               0
GRID*               6471               04.4429271809E-011.1147212943E+00+
*       5.0062600796E-01               0
GRID*               6472               05.3491340382E-011.0741820123E+00+
*       5.0062621242E-01               0
GRID*               6473               06.2186930340E-011.0262930105E+00+
*       5.0062660212E-01               0
GRID*               6474               07.0457854537E-019.7137456531E-01+
*       5.0062599100E-01               0
GRID*               6475               07.8245811726E-019.0981259544E-01+
*       5.0062615245E-01               0
GRID*               6476               08.5497939065E-018.4202675401E-01+
*       5.0062656899E-01               0
GRID*               6477               09.2165719563E-017.6847080402E-01+
*       5.0062602635E-01               0
GRID*               6478               09.8202163638E-016.8966174513E-01+
*       5.0062610493E-01               0
GRID*               6479               01.0356630012E+006.0613612676E-01+
*       5.0062651425E-01               0
GRID*               6480               01.0822218077E+005.1845475380E-01+
*       5.0062613727E-01               0
GRID*               6481               01.1213714809E+004.2723072354E-01+
*       5.0062607340E-01               0
GRID*               6482               01.1528452496E+003.3308676661E-01+
*       5.0062644419E-01               0
GRID*               6483               01.1764320178E+002.3665832092E-01+
*       5.0062633345E-01               0
GRID*               6484               01.1919673599E+001.3861398823E-01+
*       5.0062605895E-01               0
GRID*               6485               01.1993453999E+003.9620996233E-02+
*       5.0062637095E-01               0
GRID*               6486               01.1985167327E+00-5.964225502E-02+
*       5.0062647516E-01               0
GRID*               6487               01.1894869841E+00-1.584950476E-01+
*       5.0062604662E-01               0
GRID*               6488               01.1723163563E+00-2.562687440E-01+
*       5.0062629316E-01               0
GRID*               6489               01.1471253026E+00-3.522824491E-01+
*       5.0062653967E-01               0
GRID*               6490               01.1140855125E+00-4.458850207E-01+
*       5.0062607299E-01               0
GRID*               6491               01.0734190332E+00-5.364430386E-01+
*       5.0062621855E-01               0
GRID*               6492               01.0254115004E+00-6.233223178E-01+
*       5.0062655237E-01               0
GRID*               6493               09.7038710329E-01-7.059381823E-01+
*       5.0062610226E-01               0
GRID*               6494               09.0892261625E-01-7.834918319E-01+
*       5.0062612251E-01               0
GRID*               6495               08.4128192605E-01-8.557125368E-01+
*       5.0062654436E-01               0
GRID*               6496               07.6791499423E-01-9.221204330E-01+
*       5.0062607997E-01               0
GRID*               6497               06.8932726731E-01-9.822564612E-01+
*       5.0062610589E-01               0
GRID*               6498               06.0605436410E-01-1.035710913E+00+
*       5.0062651072E-01               0
GRID*               6499               05.1865142602E-01-1.082127566E+00+
*       5.0062613083E-01               0
GRID*               6500               04.2772510723E-01-1.121183000E+00+
*       5.0062607636E-01               0
GRID*               6501               03.3389116010E-01-1.152612496E+00+
*       5.0062644031E-01               0
GRID*               6502               02.3778134055E-01-1.176205534E+00+
*       5.0062642690E-01               0
GRID*               6503               01.4005223141E-01-1.191799216E+00+
*       5.0062607048E-01               0
GRID*               6504               04.1370430160E-02-1.199286234E+00+
*       5.0062635538E-01               0
GRID*               6505               0-5.759229053E-02-1.198616726E+00+
*       5.0062656669E-01               0
GRID*               6506               0-1.561762898E-01-1.189793507E+00+
*       5.0062598748E-01               0
GRID*               6507               0-2.536872989E-01-1.172877535E+00+
*       5.0062625227E-01               0
GRID*               6508               0-3.494837185E-01-1.147980625E+00+
*       5.0062654696E-01               0
GRID*               6509               0-4.428887571E-01-1.115279903E+00+
*       5.0062615407E-01               0
GRID*               6510               0-5.332816589E-01-1.074993002E+00+
*       5.0062593728E-01               0
GRID*               6511               0-6.200552202E-01-1.027390061E+00+
*       5.0062658674E-01               0
GRID*               6512               0-7.025996984E-01-9.728067850E-01+
*       5.0062621611E-01               0
GRID*               6513               0-7.803688107E-01-9.116052949E-01+
*       5.0062606918E-01               0
GRID*               6514               0-8.528310488E-01-8.442028366E-01+
*       5.0062656750E-01               0
GRID*               6515               0-9.194880613E-01-7.710648476E-01+
*       5.0062618390E-01               0
GRID*               6516               0-1.033344027E+00-6.100815635E-01+
*       6.0052078427E-01               0
GRID*               6517               0-1.080235411E+00-5.225806802E-01+
*       6.0052060989E-01               0
GRID*               6518               0-1.119735587E+00-4.314999947E-01+
*       6.0052040867E-01               0
GRID*               6519               0-1.151571950E+00-3.374635391E-01+
*       6.0052078365E-01               0
GRID*               6520               0-1.175525425E+00-2.411200276E-01+
*       6.0052066498E-01               0
GRID*               6521               0-1.191433847E+00-1.431274466E-01+
*       6.0052040883E-01               0
GRID*               6522               0-1.199187415E+00-4.414731898E-02+
*       6.0052068643E-01               0
GRID*               6523               0-1.198732396E+005.5132257829E-02+
*       6.0052071878E-01               0
GRID*               6524               0-1.190073282E+001.5403105036E-01+
*       6.0052042199E-01               0
GRID*               6525               0-1.173266997E+002.5188115468E-01+
*       6.0052050459E-01               0
GRID*               6526               0-1.148428387E+003.4800989943E-01+
*       6.0052076132E-01               0
GRID*               6527               0-1.115731394E+004.4175019520E-01+
*       6.0052044960E-01               0
GRID*               6528               0-1.075395283E+005.3247006689E-01+
*       6.0052033710E-01               0
GRID*               6529               0-1.027693733E+006.1955160455E-01+
*       6.0052079664E-01               0
GRID*               6530               0-9.729622958E-017.0238430604E-01+
*       6.0052048410E-01               0
GRID*               6531               0-9.115688234E-017.8041127116E-01+
*       6.0052028383E-01               0
GRID*               6532               0-8.439281402E-018.5310254272E-01+
*       6.0052081320E-01               0
GRID*               6533               0-7.705173106E-019.1994682210E-01+
*       6.0052051469E-01               0
GRID*               6534               0-6.918301691E-019.8049514626E-01+
*       6.0052029407E-01               0
GRID*               6535               0-6.083960113E-011.0343369185E+00+
*       6.0052080676E-01               0
GRID*               6536               0-5.208124443E-011.0810890202E+00+
*       6.0052071918E-01               0
GRID*               6537               0-4.296496994E-011.1204468575E+00+
*       6.0052039966E-01               0
GRID*               6538               0-3.355524909E-011.1521298042E+00+
*       6.0052063052E-01               0
GRID*               6539               0-2.391575055E-011.1759263835E+00+
*       6.0052075892E-01               0
GRID*               6540               0-1.411217569E-011.1916730613E+00+
*       6.0052039348E-01               0
GRID*               6541               0-4.212588872E-021.1992599167E+00+
*       6.0052059120E-01               0
GRID*               6542               05.7155473369E-021.1986376422E+00+
*       6.0052083305E-01               0
GRID*               6543               01.5605240983E-011.1898098469E+00+
*       6.0052037184E-01               0
GRID*               6544               02.5387541043E-011.1728368663E+00+
*       6.0052054467E-01               0
GRID*               6545               03.4995652437E-011.1478367909E+00+
*       6.0052084443E-01               0
GRID*               6546               04.4364979144E-011.1149773519E+00+
*       6.0052034202E-01               0
GRID*               6547               05.3430029530E-011.0744871132E+00+
*       6.0052049836E-01               0
GRID*               6548               06.2128951373E-011.0266441024E+00+
*       6.0052082816E-01               0
GRID*               6549               07.0403343710E-019.7176977299E-01+
*       6.0052034966E-01               0
GRID*               6550               07.8195302629E-019.1024674298E-01+
*       6.0052045333E-01               0
GRID*               6551               08.5451684025E-018.4249616853E-01+
*       6.0052079825E-01               0
GRID*               6552               09.2123745586E-017.6897403380E-01+
*       6.0052043155E-01               0
GRID*               6553               09.8164933095E-016.9019157071E-01+
*       6.0052041635E-01               0
GRID*               6554               01.0353392293E+006.0668901229E-01+
*       6.0052075331E-01               0
GRID*               6555               01.0819459924E+005.1903028458E-01+
*       6.0052060905E-01               0
GRID*               6556               01.1211472585E+004.2781878321E-01+
*       6.0052039021E-01               0
GRID*               6557               01.1526722238E+003.3368508179E-01+
*       6.0052069658E-01               0
GRID*               6558               01.1763096649E+002.3726593708E-01+
*       6.0052074541E-01               0
GRID*               6559               01.1918966116E+001.3922106031E-01+
*       6.0052037835E-01               0
GRID*               6560               01.1993252787E+004.0225989517E-02+
*       6.0052063843E-01               0
GRID*               6561               01.1985464683E+00-5.904191562E-02+
*       6.0052081377E-01               0
GRID*               6562               01.1895652480E+00-1.579065942E-01+
*       6.0052037055E-01               0
GRID*               6563               01.1724418293E+00-2.556941259E-01+
*       6.0052057521E-01               0
GRID*               6564               01.1472963652E+00-3.517249396E-01+
*       6.0052083791E-01               0
GRID*               6565               01.1142999860E+00-4.453487795E-01+
*       6.0052037901E-01               0
GRID*               6566               01.0736742987E+00-5.359319614E-01+
*       6.0052051374E-01               0
GRID*               6567               01.0257053244E+00-6.228386923E-01+
*       6.0052083072E-01               0
GRID*               6568               09.7071693026E-01-7.054846108E-01+
*       6.0052041771E-01               0
GRID*               6569               09.0929816646E-01-7.830559502E-01+
*       6.0052042622E-01               0
GRID*               6570               08.4170267976E-01-8.552986757E-01+
*       6.0052080634E-01               0
GRID*               6571               07.6838082847E-01-9.217323487E-01+
*       6.0052042720E-01               0
GRID*               6572               06.8983496798E-01-9.818999699E-01+
*       6.0052041826E-01               0
GRID*               6573               06.0660200043E-01-1.035390272E+00+
*       6.0052075938E-01               0
GRID*               6574               05.1923994971E-01-1.081845387E+00+
*       6.0052060093E-01               0
GRID*               6575               04.2834596863E-01-1.120945946E+00+
*       6.0052039275E-01               0
GRID*               6576               03.3454272422E-01-1.152423562E+00+
*       6.0052068645E-01               0
GRID*               6577               02.3846233064E-01-1.176067685E+00+
*       6.0052078934E-01               0
GRID*               6578               01.4075493349E-01-1.191716436E+00+
*       6.0052038807E-01               0
GRID*               6579               04.2091452240E-02-1.199261159E+00+
*       6.0052060754E-01               0
GRID*               6580               0-5.685739802E-02-1.198651801E+00+
*       6.0052082908E-01               0
GRID*               6581               0-1.554321390E-01-1.189890961E+00+
*       6.0052031473E-01               0
GRID*               6582               0-2.529409422E-01-1.173038735E+00+
*       6.0052051662E-01               0
GRID*               6583               0-3.487377006E-01-1.148207479E+00+
*       6.0052074543E-01               0
GRID*               6584               0-4.421521823E-01-1.115572146E+00+
*       6.0052044583E-01               0
GRID*               6585               0-5.325602745E-01-1.075350613E+00+
*       6.0052033580E-01               0
GRID*               6586               0-6.193515794E-01-1.027814386E+00+
*       6.0052080950E-01               0
GRID*               6587               0-7.019223335E-01-9.732956770E-01+
*       6.0052049477E-01               0
GRID*               6588               0-7.797233398E-01-9.121574467E-01+
*       6.0052038634E-01               0
GRID*               6589               0-8.522228125E-01-8.448168228E-01+
*       6.0052083725E-01               0
GRID*               6590               0-9.189229240E-01-7.717383067E-01+
*       6.0052045980E-01               0
GRID*               6591               0-1.032892449E+00-6.108457406E-01+
*       7.0040226647E-01               0
GRID*               6592               0-1.079851071E+00-5.233744646E-01+
*       7.0040207831E-01               0
GRID*               6593               0-1.119420618E+00-4.323164347E-01+
*       7.0040192883E-01               0
GRID*               6594               0-1.151327235E+00-3.382974216E-01+
*       7.0040228586E-01               0
GRID*               6595               0-1.175351550E+00-2.419662711E-01+
*       7.0040211685E-01               0
GRID*               6596               0-1.191331319E+00-1.439783581E-01+
*       7.0040192750E-01               0
GRID*               6597               0-1.199155858E+00-4.499640937E-02+
*       7.0040224758E-01               0
GRID*               6598               0-1.198770961E+005.4287602735E-02+
*       7.0040215349E-01               0
GRID*               6599               0-1.190180604E+001.5319964411E-01+
*       7.0040193543E-01               0
GRID*               6600               0-1.173440831E+002.5107035493E-01+
*       7.0040217440E-01               0
GRID*               6601               0-1.148667881E+003.4721860798E-01+
*       7.0040217945E-01               0
GRID*               6602               0-1.116032728E+004.4098840342E-01+
*       7.0040195325E-01               0
GRID*               6603               0-1.075754449E+005.3174427855E-01+
*       7.0040204272E-01               0
GRID*               6604               0-1.028110400E+006.1885991332E-01+
*       7.0040220085E-01               0
GRID*               6605               0-9.734302397E-017.0173568561E-01+
*       7.0040197378E-01               0
GRID*               6606               0-9.120835358E-017.7980971698E-01+
*       7.0040187997E-01               0
GRID*               6607               0-8.444879732E-018.5254834156E-01+
*       7.0040220824E-01               0
GRID*               6608               0-7.711151360E-019.1944581378E-01+
*       7.0040198643E-01               0
GRID*               6609               0-6.924611326E-019.8004964330E-01+
*       7.0040182546E-01               0
GRID*               6610               0-6.090573430E-011.0339476031E+00+
*       7.0040220099E-01               0
GRID*               6611               0-5.214951922E-011.0807598358E+00+
*       7.0040219691E-01               0
GRID*               6612               0-4.303514439E-011.1201775080E+00+
*       7.0040192078E-01               0
GRID*               6613               0-3.362662312E-011.1519217083E+00+
*       7.0040206414E-01               0
GRID*               6614               0-2.398793664E-011.1757793277E+00+
*       7.0040219460E-01               0
GRID*               6615               0-1.418477715E-011.1915868605E+00+
*       7.0040191501E-01               0
GRID*               6616               0-4.284891184E-021.1992343152E+00+
*       7.0040204964E-01               0
GRID*               6617               05.6439903745E-021.1986715357E+00+
*       7.0040225190E-01               0
GRID*               6618               01.5534710845E-011.1899021507E+00+
*       7.0040190290E-01               0
GRID*               6619               02.5318736757E-011.1729856010E+00+
*       7.0040202319E-01               0
GRID*               6620               03.4929006412E-011.1480397637E+00+
*       7.0040226025E-01               0
GRID*               6621               04.4300671398E-011.1152330449E+00+
*       7.0040188983E-01               0
GRID*               6622               05.3368706100E-011.0747918385E+00+
*       7.0040199400E-01               0
GRID*               6623               06.2070975382E-011.0269947264E+00+
*       7.0040224960E-01               0
GRID*               6624               07.0348791334E-019.7216483057E-01+
*       7.0040193790E-01               0
GRID*               6625               07.8144775002E-019.1068056138E-01+
*       7.0040196244E-01               0
GRID*               6626               08.5405412989E-018.4296522823E-01+
*       7.0040223123E-01               0
GRID*               6627               09.2081698498E-017.6947761391E-01+
*       7.0040208741E-01               0
GRID*               6628               09.8127678865E-016.9072112546E-01+
*       7.0040193503E-01               0
GRID*               6629               01.0350151950E+006.0724166656E-01+
*       7.0040220079E-01               0
GRID*               6630               01.0816702310E+005.1960482651E-01+
*       7.0040220745E-01               0
GRID*               6631               01.1209227572E+004.2840664765E-01+
*       7.0040191430E-01               0
GRID*               6632               01.1524988950E+003.3428327595E-01+
*       7.0040215961E-01               0
GRID*               6633               01.1761872693E+002.3787197301E-01+
*       7.0040227291E-01               0
GRID*               6634               01.1918255627E+001.3982801732E-01+
*       7.0040190508E-01               0
GRID*               6635               01.1993048503E+004.0830949103E-02+
*       7.0040211670E-01               0
GRID*               6636               01.1985758382E+00-5.844253248E-02+
*       7.0040230453E-01               0
GRID*               6637               01.1896432125E+00-1.573181730E-01+
*       7.0040190157E-01               0
GRID*               6638               01.1725670126E+00-2.551194764E-01+
*       7.0040206741E-01               0
GRID*               6639               01.1474669758E+00-3.511679145E-01+
*       7.0040231206E-01               0
GRID*               6640               01.1145141292E+00-4.448126038E-01+
*       7.0040188995E-01               0
GRID*               6641               01.0739292993E+00-5.354208034E-01+
*       7.0040201801E-01               0
GRID*               6642               01.0259987370E+00-6.223552235E-01+
*       7.0040230021E-01               0
GRID*               6643               09.7104648887E-01-7.050309575E-01+
*       7.0040193911E-01               0
GRID*               6644               09.0967346539E-01-7.826199367E-01+
*       7.0040193790E-01               0
GRID*               6645               08.4212309927E-01-8.548847348E-01+
*       7.0040226952E-01               0
GRID*               6646               07.6884657035E-01-9.213439500E-01+
*       7.0040199419E-01               0
GRID*               6647               06.9034241755E-01-9.815432630E-01+
*       7.0040193791E-01               0
GRID*               6648               06.0714939748E-01-1.035069382E+00+
*       7.0040221560E-01               0
GRID*               6649               05.1982757356E-01-1.081563203E+00+
*       7.0040220303E-01               0
GRID*               6650               04.2896661624E-01-1.120708580E+00+
*       7.0040191637E-01               0
GRID*               6651               03.3519414782E-01-1.152234268E+00+
*       7.0040214359E-01               0
GRID*               6652               02.3914189304E-01-1.175929686E+00+
*       7.0040227362E-01               0
GRID*               6653               01.4145749701E-01-1.191633253E+00+
*       7.0040191261E-01               0
GRID*               6654               04.2812433518E-02-1.199235650E+00+
*       7.0040207165E-01               0
GRID*               6655               0-5.612327939E-02-1.198686376E+00+
*       7.0040225013E-01               0
GRID*               6656               0-1.546879758E-01-1.189987946E+00+
*       7.0040185278E-01               0
GRID*               6657               0-2.521945198E-01-1.173199449E+00+
*       7.0040199263E-01               0
GRID*               6658               0-3.479916555E-01-1.148433815E+00+
*       7.0040215310E-01               0
GRID*               6659               0-4.414155808E-01-1.115863834E+00+
*       7.0040195034E-01               0
GRID*               6660               0-5.318401226E-01-1.075707068E+00+
*       7.0040203985E-01               0
GRID*               6661               0-6.186475867E-01-1.028238267E+00+
*       7.0040222777E-01               0
GRID*               6662               0-7.012448023E-01-9.737839683E-01+
*       7.0040198798E-01               0
GRID*               6663               0-7.790776994E-01-9.127089629E-01+
*       7.0040192252E-01               0
GRID*               6664               0-8.516138356E-01-8.454306658E-01+
*       7.0040228050E-01               0
GRID*               6665               0-9.183574468E-01-7.724111654E-01+
*       7.0040195123E-01               0
GRID*               6666               0-1.032440165E+00-6.116098127E-01+
*       8.0027384731E-01               0
GRID*               6667               0-1.079466268E+00-5.241677133E-01+
*       8.0027368057E-01               0
GRID*               6668               0-1.119105085E+00-4.331325638E-01+
*       8.0027357023E-01               0
GRID*               6669               0-1.151081710E+00-3.391317710E-01+
*       8.0027385997E-01               0
GRID*               6670               0-1.175177127E+00-2.428120816E-01+
*       8.0027370535E-01               0
GRID*               6671               0-1.191228205E+00-1.448290148E-01+
*       8.0027356795E-01               0
GRID*               6672               0-1.199123613E+00-4.584679152E-02+
*       8.0027383769E-01               0
GRID*               6673               0-1.198808916E+005.3443250372E-02+
*       8.0027372619E-01               0
GRID*               6674               0-1.190287330E+001.5236827504E-01+
*       8.0027357247E-01               0
GRID*               6675               0-1.173614512E+002.5025713634E-01+
*       8.0027380282E-01               0
GRID*               6676               0-1.148906740E+003.4642745751E-01+
*       8.0027373562E-01               0
GRID*               6677               0-1.116333483E+004.4022654788E-01+
*       8.0027358336E-01               0
GRID*               6678               0-1.076113661E+005.3101700230E-01+
*       8.0027375087E-01               0
GRID*               6679               0-1.028526466E+006.1816817304E-01+
*       8.0027373969E-01               0
GRID*               6680               0-9.738976280E-017.0108691708E-01+
*       8.0027359375E-01               0
GRID*               6681               0-9.125970873E-017.7920878247E-01+
*       8.0027366917E-01               0
GRID*               6682               0-8.450473299E-018.5199388884E-01+
*       8.0027373093E-01               0
GRID*               6683               0-7.717124323E-019.1894458102E-01+
*       8.0027359285E-01               0
GRID*               6684               0-6.930912086E-019.7960419910E-01+
*       8.0027352687E-01               0
GRID*               6685               0-6.097184577E-011.0335578478E+00+
*       8.0027370866E-01               0
GRID*               6686               0-5.221768276E-011.0804306301E+00+
*       8.0027373014E-01               0
GRID*               6687               0-4.310529464E-011.1199077471E+00+
*       8.0027356316E-01               0
GRID*               6688               0-3.369799505E-011.1517131336E+00+
*       8.0027363283E-01               0
GRID*               6689               0-2.406005910E-011.1756319285E+00+
*       8.0027371782E-01               0
GRID*               6690               0-1.425731253E-011.1915002939E+00+
*       8.0027355932E-01               0
GRID*               6691               0-4.357199635E-021.1992082706E+00+
*       8.0027364016E-01               0
GRID*               6692               05.5724583689E-021.1987049849E+00+
*       8.0027377851E-01               0
GRID*               6693               01.5464182036E-011.1899940277E+00+
*       8.0027355564E-01               0
GRID*               6694               02.5249920219E-011.1731339359E+00+
*       8.0027363066E-01               0
GRID*               6695               03.4862357101E-011.1482423220E+00+
*       8.0027379592E-01               0
GRID*               6696               04.4236339249E-011.1154884145E+00+
*       8.0027357106E-01               0
GRID*               6697               05.3307365621E-011.0750962092E+00+
*       8.0027361551E-01               0
GRID*               6698               06.2012978045E-011.0273450313E+00+
*       8.0027379845E-01               0
GRID*               6699               07.0294168957E-019.7255995170E-01+
*       8.0027368246E-01               0
GRID*               6700               07.8094226127E-019.1111407330E-01+
*       8.0027359505E-01               0
GRID*               6701               08.5359111090E-018.4343408352E-01+
*       8.0027379472E-01               0
GRID*               6702               09.2039687194E-017.6998012333E-01+
*       8.0027377486E-01               0
GRID*               6703               09.8090399468E-016.9125043011E-01+
*       8.0027357559E-01               0
GRID*               6704               01.0346908194E+006.0779422249E-01+
*       8.0027377960E-01               0
GRID*               6705               01.0813947904E+005.2017781781E-01+
*       8.0027383297E-01               0
GRID*               6706               01.1206979705E+004.2899433414E-01+
*       8.0027355982E-01               0
GRID*               6707               01.1523252312E+003.3488145559E-01+
*       8.0027375343E-01               0
GRID*               6708               01.1760647186E+002.3847706410E-01+
*       8.0027386947E-01               0
GRID*               6709               01.1917542113E+001.4043487685E-01+
*       8.0027355330E-01               0
GRID*               6710               01.1992841106E+004.1435953691E-02+
*       8.0027372371E-01               0
GRID*               6711               01.1986048751E+00-5.784362537E-02+
*       8.0027389014E-01               0
GRID*               6712               01.1897208785E+00-1.567297712E-01+
*       8.0027355362E-01               0
GRID*               6713               01.1726919171E+00-2.545447413E-01+
*       8.0027368624E-01               0
GRID*               6714               01.1476372429E+00-3.506110341E-01+
*       8.0027389674E-01               0
GRID*               6715               01.1147276112E+00-4.442773340E-01+
*       8.0027354634E-01               0
GRID*               6716               01.0741840518E+00-5.349095301E-01+
*       8.0027364681E-01               0
GRID*               6717               01.0262918761E+00-6.218716895E-01+
*       8.0027388947E-01               0
GRID*               6718               09.7137577911E-01-7.045772213E-01+
*       8.0027357952E-01               0
GRID*               6719               09.1004853131E-01-7.821837698E-01+
*       8.0027357239E-01               0
GRID*               6720               08.4254332440E-01-8.544705771E-01+
*       8.0027385885E-01               0
GRID*               6721               07.6931250280E-01-9.209550071E-01+
*       8.0027370660E-01               0
GRID*               6722               06.9084963539E-01-9.811863267E-01+
*       8.0027357933E-01               0
GRID*               6723               06.0769668565E-01-1.034748165E+00+
*       8.0027380190E-01               0
GRID*               6724               05.2041361598E-01-1.081281337E+00+
*       8.0027383067E-01               0
GRID*               6725               04.2958706856E-01-1.120470894E+00+
*       8.0027356139E-01               0
GRID*               6726               03.3584554480E-01-1.152044580E+00+
*       8.0027373243E-01               0
GRID*               6727               02.3982066295E-01-1.175791422E+00+
*       8.0027383561E-01               0
GRID*               6728               01.4215994169E-01-1.191549664E+00+
*       8.0027355819E-01               0
GRID*               6729               04.3533468326E-02-1.199209701E+00+
*       8.0027366686E-01               0
GRID*               6730               0-5.538943288E-02-1.198720484E+00+
*       8.0027377759E-01               0
GRID*               6731               0-1.539437470E-01-1.190084472E+00+
*       8.0027351808E-01               0
GRID*               6732               0-2.514479602E-01-1.173359692E+00+
*       8.0027359808E-01               0
GRID*               6733               0-3.472457845E-01-1.148659570E+00+
*       8.0027370041E-01               0
GRID*               6734               0-4.406789278E-01-1.116154975E+00+
*       8.0027358142E-01               0
GRID*               6735               0-5.311185373E-01-1.076063553E+00+
*       8.0027374995E-01               0
GRID*               6736               0-6.179435041E-01-1.028661550E+00+
*       8.0027377776E-01               0
GRID*               6737               0-7.005670888E-01-9.742716702E-01+
*       8.0027361017E-01               0
GRID*               6738               0-7.784320926E-01-9.132596869E-01+
*       8.0027361015E-01               0
GRID*               6739               0-8.510044364E-01-8.460440519E-01+
*       8.0027384193E-01               0
GRID*               6740               0-9.177916259E-01-7.730834276E-01+
*       8.0027357360E-01               0
GRID*               6741               0-1.031987449E+00-6.123733352E-01+
*       9.0013871728E-01               0
GRID*               6742               0-1.079081002E+00-5.249604236E-01+
*       9.0013857420E-01               0
GRID*               6743               0-1.118788978E+00-4.339484079E-01+
*       9.0013848839E-01               0
GRID*               6744               0-1.150835604E+00-3.399658678E-01+
*       9.0013871205E-01               0
GRID*               6745               0-1.175002163E+00-2.436574227E-01+
*       9.0013859033E-01               0
GRID*               6746               0-1.191124531E+00-1.456792014E-01+
*       9.0013848577E-01               0
GRID*               6747               0-1.199090750E+00-4.669738166E-02+
*       9.0013868581E-01               0
GRID*               6748               0-1.198846255E+005.2599286058E-02+
*       9.0013859996E-01               0
GRID*               6749               0-1.190393463E+001.5153690988E-01+
*       9.0013848819E-01               0
GRID*               6750               0-1.173787762E+002.4944304632E-01+
*       9.0013865327E-01               0
GRID*               6751               0-1.149144917E+003.4563659300E-01+
*       9.0013859762E-01               0
GRID*               6752               0-1.116633671E+004.3946459806E-01+
*       9.0013849498E-01               0
GRID*               6753               0-1.076473067E+005.3028794154E-01+
*       9.0013861667E-01               0
GRID*               6754               0-1.028941808E+006.1747658939E-01+
*       9.0013858712E-01               0
GRID*               6755               0-9.743644759E-017.0043797959E-01+
*       9.0013849954E-01               0
GRID*               6756               0-9.131115190E-017.7860585529E-01+
*       9.0013857666E-01               0
GRID*               6757               0-8.456059594E-018.5143943672E-01+
*       9.0013856374E-01               0
GRID*               6758               0-7.723092073E-019.1844311682E-01+
*       9.0013849060E-01               0
GRID*               6759               0-6.937207357E-019.7915854367E-01+
*       9.0013851911E-01               0
GRID*               6760               0-6.103789130E-011.0331679206E+00+
*       9.0013852402E-01               0
GRID*               6761               0-5.228581491E-011.0801010426E+00+
*       9.0013853582E-01               0
GRID*               6762               0-4.317542329E-011.1196375645E+00+
*       9.0013848275E-01               0
GRID*               6763               0-3.376937931E-011.1515040358E+00+
*       9.0013850139E-01               0
GRID*               6764               0-2.413218402E-011.1754840651E+00+
*       9.0013853015E-01               0
GRID*               6765               0-1.432983605E-011.1914132963E+00+
*       9.0013848131E-01               0
GRID*               6766               0-4.429524703E-021.1991817773E+00+
*       9.0013852417E-01               0
GRID*               6767               05.5008999903E-021.1987380212E+00+
*       9.0013860270E-01               0
GRID*               6768               01.5393651286E-011.1900854830E+00+
*       9.0013848640E-01               0
GRID*               6769               02.5181083923E-011.1732818859E+00+
*       9.0013852654E-01               0
GRID*               6770               03.4795667180E-011.1484445827E+00+
*       9.0013863213E-01               0
GRID*               6771               04.4171957127E-011.1157435671E+00+
*       9.0013854903E-01               0
GRID*               6772               05.3246003091E-011.0754002491E+00+
*       9.0013852081E-01               0
GRID*               6773               06.1954934184E-011.0276951705E+00+
*       9.0013864876E-01               0
GRID*               6774               07.0239615454E-019.7295402810E-01+
*       9.0013860780E-01               0
GRID*               6775               07.8043652931E-019.1154730423E-01+
*       9.0013850813E-01               0
GRID*               6776               08.5312762854E-018.4390289086E-01+
*       9.0013865750E-01               0
GRID*               6777               09.1997729770E-017.7048135655E-01+
*       9.0013865584E-01               0
GRID*               6778               09.8053093214E-016.9177950813E-01+
*       9.0013849420E-01               0
GRID*               6779               01.0343660197E+006.0834681948E-01+
*       9.0013865455E-01               0
GRID*               6780               01.0811192991E+005.2075009483E-01+
*       9.0013869830E-01               0
GRID*               6781               01.1204728908E+004.2958186234E-01+
*       9.0013848244E-01               0
GRID*               6782               01.1521511985E+003.3547973367E-01+
*       9.0013864001E-01               0
GRID*               6783               01.1759418954E+002.3908187365E-01+
*       9.0013873173E-01               0
GRID*               6784               01.1916825552E+001.4104165814E-01+
*       9.0013847860E-01               0
GRID*               6785               01.1992630555E+004.2041087884E-02+
*       9.0013861916E-01               0
GRID*               6786               01.1986336130E+00-5.724469817E-02+
*       9.0013875569E-01               0
GRID*               6787               01.1897982476E+00-1.561413726E-01+
*       9.0013848220E-01               0
GRID*               6788               01.1728165548E+00-2.539698615E-01+
*       9.0013858991E-01               0
GRID*               6789               01.1478072784E+00-3.500539496E-01+
*       9.0013876854E-01               0
GRID*               6790               01.1149408279E+00-4.437419861E-01+
*       9.0013847978E-01               0
GRID*               6791               01.0744385746E+00-5.343981028E-01+
*       9.0013855727E-01               0
GRID*               6792               01.0265848831E+00-6.213878626E-01+
*       9.0013876895E-01               0
GRID*               6793               09.7170480213E-01-7.041233996E-01+
*       9.0013849352E-01               0
GRID*               6794               09.1042338463E-01-7.817474251E-01+
*       9.0013848614E-01               0
GRID*               6795               08.4296349974E-01-8.540560612E-01+
*       9.0013874108E-01               0
GRID*               6796               07.6977791925E-01-9.205660377E-01+
*       9.0013864118E-01               0
GRID*               6797               06.9135664333E-01-9.808291453E-01+
*       9.0013849853E-01               0
GRID*               6798               06.0824400174E-01-1.034426540E+00+
*       9.0013868265E-01               0
GRID*               6799               05.2099891876E-01-1.080999414E+00+
*       9.0013869688E-01               0
GRID*               6800               04.3020734672E-01-1.120232881E+00+
*       9.0013848352E-01               0
GRID*               6801               03.3649703674E-01-1.151854460E+00+
*       9.0013861562E-01               0
GRID*               6802               02.4049930223E-01-1.175652775E+00+
*       9.0013867431E-01               0
GRID*               6803               01.4286228938E-01-1.191465665E+00+
*       9.0013848063E-01               0
GRID*               6804               04.4254659297E-02-1.199183307E+00+
*       9.0013855423E-01               0
GRID*               6805               0-5.465533289E-02-1.198754159E+00+
*       9.0013860223E-01               0
GRID*               6806               0-1.531992420E-01-1.190180576E+00+
*       9.0013847973E-01               0
GRID*               6807               0-2.507011842E-01-1.173519478E+00+
*       9.0013849260E-01               0
GRID*               6808               0-3.465002455E-01-1.148884695E+00+
*       9.0013855620E-01               0
GRID*               6809               0-4.399421941E-01-1.116445583E+00+
*       9.0013849418E-01               0
GRID*               6810               0-5.303951527E-01-1.076420248E+00+
*       9.0013861635E-01               0
GRID*               6811               0-6.172395376E-01-1.029084110E+00+
*       9.0013863292E-01               0
GRID*               6812               0-6.998891709E-01-9.747587990E-01+
*       9.0013851679E-01               0
GRID*               6813               0-7.777866954E-01-9.138094537E-01+
*       9.0013859476E-01               0
GRID*               6814               0-8.503948687E-01-8.466567316E-01+
*       9.0013870203E-01               0
GRID*               6815               0-9.172254499E-01-7.737551068E-01+
*       9.0013848318E-01               0
GRID*               4280               0-1.101976175E+00-2.129836482E-01+
*       -1.000000000E+00               0
GRID*               4281               0-1.001661782E+00-1.898997044E-01+
*       -1.000000000E+00               0
GRID*               4282               0-9.035742607E-01-1.623784265E-01+
*       -1.000000000E+00               0
GRID*               4283               0-8.046512142E-01-1.348702996E-01+
*       -1.000000000E+00               0
GRID*               4284               0-7.081612917E-01-1.154825707E-01+
*       -1.000000000E+00               0
GRID*               4285               0-6.223221433E-01-9.585840952E-02+
*       -1.000000000E+00               0
GRID*               4286               0-5.404874011E-01-6.823789010E-02+
*       -1.000000000E+00               0
GRID*               4287               0-4.563443979E-01-3.835820199E-02+
*       -1.000000000E+00               0
GRID*               4288               0-3.696906896E-01-9.066816121E-03+
*       -1.000000000E+00               0
GRID*               4289               0-2.895389822E-011.5319987172E-02+
*       -1.000000000E+00               0
GRID*               4290               0-2.251408136E-013.3793933139E-02+
*       -1.000000000E+00               0
GRID*               4291               0-1.648691645E-014.8800046551E-02+
*       -1.000000000E+00               0
GRID*               4292               02.3575907789E-01-1.090757184E+00+
*       -1.000000000E+00               0
GRID*               4293               02.0649542931E-01-9.888849277E-01+
*       -1.000000000E+00               0
GRID*               4294               01.9380973825E-01-8.934021446E-01+
*       -1.000000000E+00               0
GRID*               4295               01.8167109606E-01-7.948440993E-01+
*       -1.000000000E+00               0
GRID*               4296               01.6741058750E-01-6.966764532E-01+
*       -1.000000000E+00               0
GRID*               4297               01.5401687637E-01-6.023206926E-01+
*       -1.000000000E+00               0
GRID*               4298               01.4475645519E-01-5.102635857E-01+
*       -1.000000000E+00               0
GRID*               4299               01.3963686207E-01-4.180073635E-01+
*       -1.000000000E+00               0
GRID*               4300               01.3801060825E-01-3.277125229E-01+
*       -1.000000000E+00               0
GRID*               4301               01.4060625144E-01-2.549011309E-01+
*       -1.000000000E+00               0
GRID*               4302               01.0954034553E-01-2.061017591E-01+
*       -1.000000000E+00               0
GRID*               4303               01.0951502874E-01-1.420931963E-01+
*       -1.000000000E+00               0
GRID*               4304               01.8227975380E-011.0840014892E+00+
*       -1.000000000E+00               0
GRID*               4305               01.6425018445E-019.8729607917E-01+
*       -1.000000000E+00               0
GRID*               4306               01.5570763303E-018.9963362149E-01+
*       -1.000000000E+00               0
GRID*               4307               01.4806234706E-018.0512233137E-01+
*       -1.000000000E+00               0
GRID*               4308               01.3932124610E-017.0789858781E-01+
*       -1.000000000E+00               0
GRID*               4309               01.2940154445E-016.0994039008E-01+
*       -1.000000000E+00               0
GRID*               4310               01.1845968779E-015.1149210073E-01+
*       -1.000000000E+00               0
GRID*               4311               01.0719170315E-014.1394636119E-01+
*       -1.000000000E+00               0
GRID*               4312               09.7704139386E-023.3763465979E-01+
*       -1.000000000E+00               0
GRID*               4313               01.2020189229E-012.7765197122E-01+
*       -1.000000000E+00               0
GRID*               4314               09.2446765789E-021.8852612466E-01+
*       -1.000000000E+00               0
GRID*               4315               08.9820422950E-021.3853779991E-01+
*       -1.000000000E+00               0
GRID*               4316               03.0621240526E-021.7416473568E-01+
*       -1.000000000E+00               0
GRID*               4317               04.7137037693E-026.6467996212E-01+
*       -1.000000000E+00               0
GRID*               4318               0-4.469353984E-026.2155403414E-01+
*       -1.000000000E+00               0
GRID*               4319               0-1.361027585E-015.7848291940E-01+
*       -1.000000000E+00               0
GRID*               4320               0-2.264743187E-015.3588371477E-01+
*       -1.000000000E+00               0
GRID*               4321               0-3.157621570E-014.9390408086E-01+
*       -1.000000000E+00               0
GRID*               4322               0-4.045176143E-014.5237819252E-01+
*       -1.000000000E+00               0
GRID*               4323               0-4.936504624E-014.1150764480E-01+
*       -1.000000000E+00               0
GRID*               4324               0-5.836948986E-013.7104870081E-01+
*       -1.000000000E+00               0
GRID*               4325               0-6.749453327E-013.2952715850E-01+
*       -1.000000000E+00               0
GRID*               4326               0-7.676256308E-012.8440071890E-01+
*       -1.000000000E+00               0
GRID*               4327               0-8.541003712E-012.3329743898E-01+
*       -1.000000000E+00               0
GRID*               4328               0-9.346902627E-011.8794810881E-01+
*       -1.000000000E+00               0
GRID*               4329               0-1.019609049E+001.5032957192E-01+
*       -1.000000000E+00               0
GRID*               4330               0-1.108379808E+001.1167426816E-01+
*       -1.000000000E+00               0
GRID*               4331               0-5.184172079E-019.7780541477E-01+
*       -1.000000000E+00               0
GRID*               4332               0-5.281367114E-018.7322805833E-01+
*       -1.000000000E+00               0
GRID*               4333               0-5.389441216E-017.7162801134E-01+
*       -1.000000000E+00               0
GRID*               4334               0-5.503481343E-016.7143573574E-01+
*       -1.000000000E+00               0
GRID*               4335               0-5.619770417E-015.7156857296E-01+
*       -1.000000000E+00               0
GRID*               4336               0-5.733737922E-014.7144303180E-01+
*       -1.000000000E+00               0
GRID*               4337               0-1.071555660E+002.9837528553E-01+
*       -1.000000000E+00               0
GRID*               4338               0-9.766376218E-013.2580610441E-01+
*       -1.000000000E+00               0
GRID*               4339               0-8.671276139E-013.3881948668E-01+
*       -1.000000000E+00               0
GRID*               4340               0-7.597765806E-013.8841817000E-01+
*       -1.000000000E+00               0
GRID*               4341               0-6.648972203E-014.3074424708E-01+
*       -1.000000000E+00               0
GRID*               4342               0-9.281849098E-012.6406213912E-01+
*       -1.000000000E+00               0
GRID*               4343               0-1.003771159E+002.3859285239E-01+
*       -1.000000000E+00               0
GRID*               4344               0-1.093418586E+002.0516311086E-01+
*       -1.000000000E+00               0
GRID*               4345               0-6.056371710E-019.3121323339E-01+
*       -1.000000000E+00               0
GRID*               4346               0-6.526658378E-015.3150120740E-01+
*       -1.000000000E+00               0
GRID*               4347               0-6.401923895E-016.3063790256E-01+
*       -1.000000000E+00               0
GRID*               4348               0-6.279467387E-017.2887085534E-01+
*       -1.000000000E+00               0
GRID*               4349               0-6.160817457E-018.2814438950E-01+
*       -1.000000000E+00               0
GRID*               4350               0-1.042447532E+003.9064481185E-01+
*       -1.000000000E+00               0
GRID*               4351               0-9.422868918E-014.1915912224E-01+
*       -1.000000000E+00               0
GRID*               4352               0-8.416456435E-014.5269874155E-01+
*       -1.000000000E+00               0
GRID*               4353               0-7.451198142E-014.9182022061E-01+
*       -1.000000000E+00               0
GRID*               4354               0-6.910914059E-018.8117554843E-01+
*       -1.000000000E+00               0
GRID*               4355               0-7.303734832E-015.9120618495E-01+
*       -1.000000000E+00               0
GRID*               4356               0-7.173022056E-016.8735599260E-01+
*       -1.000000000E+00               0
GRID*               4357               0-7.042907075E-017.8283592102E-01+
*       -1.000000000E+00               0
GRID*               4358               0-1.009371795E+004.8489281293E-01+
*       -1.000000000E+00               0
GRID*               4359               0-9.142622672E-015.1875927009E-01+
*       -1.000000000E+00               0
GRID*               4360               0-8.213996063E-015.5405457309E-01+
*       -1.000000000E+00               0
GRID*               4361               0-7.780362513E-018.3079810176E-01+
*       -1.000000000E+00               0
GRID*               4362               0-8.048584545E-016.4921193968E-01+
*       -1.000000000E+00               0
GRID*               4363               0-7.953375526E-017.3999659836E-01+
*       -1.000000000E+00               0
GRID*               4364               0-9.779166221E-015.8156464460E-01+
*       -1.000000000E+00               0
GRID*               4365               0-8.919584796E-016.1862201422E-01+
*       -1.000000000E+00               0
GRID*               4366               0-8.716253671E-017.0178252458E-01+
*       -1.000000000E+00               0
GRID*               4367               09.8682692419E-021.0283394925E+00+
*       -1.000000000E+00               0
GRID*               4368               01.0951729599E-021.0120812498E+00+
*       -1.000000000E+00               0
GRID*               4369               0-8.866247748E-029.7703834239E-01+
*       -1.000000000E+00               0
GRID*               4370               0-1.813939196E-019.3558562893E-01+
*       -1.000000000E+00               0
GRID*               4371               0-2.711714515E-018.9566590537E-01+
*       -1.000000000E+00               0
GRID*               4372               0-3.606194557E-018.5553444685E-01+
*       -1.000000000E+00               0
GRID*               4373               0-4.499207894E-018.1406636096E-01+
*       -1.000000000E+00               0
GRID*               4374               0-4.289111788E-011.0194123316E+00+
*       -1.000000000E+00               0
GRID*               4375               0-4.392513432E-019.1593027800E-01+
*       -1.000000000E+00               0
GRID*               4376               0-3.496878786E-019.5602264717E-01+
*       -1.000000000E+00               0
GRID*               4377               0-3.383290599E-011.0564059210E+00+
*       -1.000000000E+00               0
GRID*               4378               0-2.603290425E-019.9455042308E-01+
*       -1.000000000E+00               0
GRID*               4379               0-2.489275996E-011.0893129135E+00+
*       -1.000000000E+00               0
GRID*               4380               0-1.719763917E-011.0339952936E+00+
*       -1.000000000E+00               0
GRID*               4381               0-1.721113132E-011.1175788096E+00+
*       -1.000000000E+00               0
GRID*               4382               0-7.472716979E-021.0923237713E+00+
*       -1.000000000E+00               0
GRID*               4383               06.0401296554E-021.1136292025E+00+
*       -1.000000000E+00               0
GRID*               4384               05.7487299418E-027.6265832371E-01+
*       -1.000000000E+00               0
GRID*               4385               0-2.233007590E-028.1873267289E-01+
*       -1.000000000E+00               0
GRID*               4386               0-1.012915532E-018.7684071864E-01+
*       -1.000000000E+00               0
GRID*               4387               08.1653977714E-029.5039005370E-01+
*       -1.000000000E+00               0
GRID*               4388               0-8.390803612E-039.1560014853E-01+
*       -1.000000000E+00               0
GRID*               4389               06.8937908026E-028.5883763960E-01+
*       -1.000000000E+00               0
GRID*               4390               0-3.331388153E-027.2069050185E-01+
*       -1.000000000E+00               0
GRID*               4391               0-1.128103603E-017.7799548400E-01+
*       -1.000000000E+00               0
GRID*               4392               0-1.919842205E-018.3646874100E-01+
*       -1.000000000E+00               0
GRID*               4393               0-1.241268132E-016.7867375512E-01+
*       -1.000000000E+00               0
GRID*               4394               0-2.145326456E-016.3663086616E-01+
*       -1.000000000E+00               0
GRID*               4395               0-2.030562207E-017.3685237052E-01+
*       -1.000000000E+00               0
GRID*               4396               0-2.818523266E-017.9579316187E-01+
*       -1.000000000E+00               0
GRID*               4397               0-3.714170769E-017.5461008563E-01+
*       -1.000000000E+00               0
GRID*               4398               0-4.608260691E-017.1297045669E-01+
*       -1.000000000E+00               0
GRID*               4399               0-3.042749919E-015.9478066066E-01+
*       -1.000000000E+00               0
GRID*               4400               0-2.929162975E-016.9542357126E-01+
*       -1.000000000E+00               0
GRID*               4401               0-3.824797708E-016.5385452976E-01+
*       -1.000000000E+00               0
GRID*               4402               0-4.720214698E-016.1242634883E-01+
*       -1.000000000E+00               0
GRID*               4403               0-4.831763176E-015.1206745092E-01+
*       -1.000000000E+00               0
GRID*               4404               0-3.937118447E-015.5326864149E-01+
*       -1.000000000E+00               0
GRID*               4405               03.6241385776E-025.6585791025E-01+
*       -1.000000000E+00               0
GRID*               4406               02.5229364325E-024.6530147192E-01+
*       -1.000000000E+00               0
GRID*               4407               0-5.651141070E-025.2143137512E-01+
*       -1.000000000E+00               0
GRID*               4408               06.1251601742E-022.9197252553E-01+
*       -1.000000000E+00               0
GRID*               4409               01.7196573140E-023.5722327798E-01+
*       -1.000000000E+00               0
GRID*               4410               0-6.912714797E-024.1944475092E-01+
*       -1.000000000E+00               0
GRID*               4411               0-1.484701952E-014.7792000388E-01+
*       -1.000000000E+00               0
GRID*               4412               0-1.321183301E-011.2513909780E-01+
*       -1.000000000E+00               0
GRID*               4413               0-1.104543032E-012.2042355221E-01+
*       -1.000000000E+00               0
GRID*               4414               0-8.642743315E-023.1714139608E-01+
*       -1.000000000E+00               0
GRID*               4415               0-5.254408938E-021.6568096693E-01+
*       -1.000000000E+00               0
GRID*               4416               0-1.009822136E-022.5104670993E-01+
*       -1.000000000E+00               0
GRID*               4417               07.0738981863E-022.3409329874E-01+
*       -1.000000000E+00               0
GRID*               4418               0-2.098067925E-011.0167313682E-01+
*       -1.000000000E+00               0
GRID*               4419               0-1.948621999E-011.8467175371E-01+
*       -1.000000000E+00               0
GRID*               4420               0-1.786906004E-012.7860046888E-01+
*       -1.000000000E+00               0
GRID*               4421               0-1.623705153E-013.7724749459E-01+
*       -1.000000000E+00               0
GRID*               4422               0-2.633815539E-012.3873612586E-01+
*       -1.000000000E+00               0
GRID*               4423               0-3.377072595E-012.9435433781E-01+
*       -1.000000000E+00               0
GRID*               4424               0-4.149430457E-013.5250060806E-01+
*       -1.000000000E+00               0
GRID*               4425               0-2.387368748E-014.3568427990E-01+
*       -1.000000000E+00               0
GRID*               4426               0-2.513178517E-013.3630721085E-01+
*       -1.000000000E+00               0
GRID*               4427               0-3.271374034E-013.9424760161E-01+
*       -1.000000000E+00               0
GRID*               4428               0-2.704466419E-011.4762685801E-01+
*       -1.000000000E+00               0
GRID*               4429               0-3.452249957E-011.9617820627E-01+
*       -1.000000000E+00               0
GRID*               4430               0-4.240002979E-012.5324740351E-01+
*       -1.000000000E+00               0
GRID*               4431               0-5.034039302E-013.1201850536E-01+
*       -1.000000000E+00               0
GRID*               4432               0-9.449097161E-019.6359326553E-02+
*       -1.000000000E+00               0
GRID*               4433               0-9.586075480E-011.4353395722E-03+
*       -1.000000000E+00               0
GRID*               4434               0-9.778919686E-01-9.368576444E-02+
*       -1.000000000E+00               0
GRID*               4435               0-1.033171667E+005.7999544173E-02+
*       -1.000000000E+00               0
GRID*               4436               0-1.118674514E+001.9909287252E-02+
*       -1.000000000E+00               0
GRID*               4437               0-1.048225175E+00-3.157707545E-02+
*       -1.000000000E+00               0
GRID*               4438               0-1.073333188E+00-1.189937059E-01+
*       -1.000000000E+00               0
GRID*               4439               0-1.125773411E+00-5.685129167E-02+
*       -1.000000000E+00               0
GRID*               4440               0-4.316931347E-011.5364005165E-01+
*       -1.000000000E+00               0
GRID*               4441               0-5.201645307E-011.1539556630E-01+
*       -1.000000000E+00               0
GRID*               4442               0-6.055835084E-017.7730292567E-02+
*       -1.000000000E+00               0
GRID*               4443               0-6.869130783E-013.6226766275E-02+
*       -1.000000000E+00               0
GRID*               4444               0-7.711326930E-01-2.764002115E-02+
*       -1.000000000E+00               0
GRID*               4445               0-8.805819803E-01-6.314081159E-02+
*       -1.000000000E+00               0
GRID*               4446               0-7.700234290E-011.8375294551E-01+
*       -1.000000000E+00               0
GRID*               4447               0-6.860165867E-011.3073293741E-01+
*       -1.000000000E+00               0
GRID*               4448               0-7.725452730E-018.4022467145E-02+
*       -1.000000000E+00               0
GRID*               4449               0-8.570083198E-011.3752409814E-01+
*       -1.000000000E+00               0
GRID*               4450               0-8.645725132E-013.8359762282E-02+
*       -1.000000000E+00               0
GRID*               4451               0-5.119239970E-012.1309963388E-01+
*       -1.000000000E+00               0
GRID*               4452               0-5.925372743E-012.7127997662E-01+
*       -1.000000000E+00               0
GRID*               4453               0-5.996304335E-011.7280921334E-01+
*       -1.000000000E+00               0
GRID*               4454               0-6.817245213E-012.2857400835E-01+
*       -1.000000000E+00               0
GRID*               4455               0-2.666394453E-017.7007129362E-02+
*       -1.000000000E+00               0
GRID*               4456               0-4.423527898E-015.5285580708E-02+
*       -1.000000000E+00               0
GRID*               4457               0-3.453089085E-019.1043366031E-02+
*       -1.000000000E+00               0
GRID*               4458               0-6.783998181E-01-4.307848016E-02+
*       -1.000000000E+00               0
GRID*               4459               0-6.104891363E-01-1.222494308E-02+
*       -1.000000000E+00               0
GRID*               4460               0-5.293414487E-012.1476836498E-02+
*       -1.000000000E+00               0
GRID*               4461               01.1121797725E+00-1.740625923E-02+
*       -1.000000000E+00               0
GRID*               4462               01.0286041505E+003.3188657174E-02+
*       -1.000000000E+00               0
GRID*               4463               09.4721850667E-018.2602859609E-02+
*       -1.000000000E+00               0
GRID*               4464               08.6820893504E-011.3171477808E-01+
*       -1.000000000E+00               0
GRID*               4465               07.9026992942E-011.8236971266E-01+
*       -1.000000000E+00               0
GRID*               4466               07.1127617934E-012.3461588224E-01+
*       -1.000000000E+00               0
GRID*               4467               06.3087872528E-012.8738108858E-01+
*       -1.000000000E+00               0
GRID*               4468               05.4960857283E-013.4034377297E-01+
*       -1.000000000E+00               0
GRID*               4469               04.6717429474E-013.9340251831E-01+
*       -1.000000000E+00               0
GRID*               4470               03.8288048696E-014.4643434646E-01+
*       -1.000000000E+00               0
GRID*               4471               02.9735624359E-015.0028001967E-01+
*       -1.000000000E+00               0
GRID*               4472               02.1267560794E-015.5503521910E-01+
*       -1.000000000E+00               0
GRID*               4473               06.1596862807E-019.2064475302E-01+
*       -1.000000000E+00               0
GRID*               4474               05.2116277171E-018.7875082209E-01+
*       -1.000000000E+00               0
GRID*               4475               04.2459961300E-018.3957908369E-01+
*       -1.000000000E+00               0
GRID*               4476               03.2641554190E-017.9733816260E-01+
*       -1.000000000E+00               0
GRID*               4477               02.3180703066E-017.5194162162E-01+
*       -1.000000000E+00               0
GRID*               4478               02.3946795689E-019.4397098269E-01+
*       -1.000000000E+00               0
GRID*               4479               03.3777371471E-019.0687965132E-01+
*       -1.000000000E+00               0
GRID*               4480               02.3947359964E-018.5068893380E-01+
*       -1.000000000E+00               0
GRID*               4481               03.7481270643E-011.0562214436E+00+
*       -1.000000000E+00               0
GRID*               4482               03.0979611710E-019.9875613531E-01+
*       -1.000000000E+00               0
GRID*               4483               02.8880153309E-011.0784250876E+00+
*       -1.000000000E+00               0
GRID*               4484               02.3755763719E-011.0178382721E+00+
*       -1.000000000E+00               0
GRID*               4485               05.3473811479E-019.7415141983E-01+
*       -1.000000000E+00               0
GRID*               4486               04.4363826074E-019.3437007703E-01+
*       -1.000000000E+00               0
GRID*               4487               03.8459421216E-019.8451602225E-01+
*       -1.000000000E+00               0
GRID*               4488               04.5553102470E-011.0214380016E+00+
*       -1.000000000E+00               0
GRID*               4489               05.0702725948E-017.8222557018E-01+
*       -1.000000000E+00               0
GRID*               4490               04.9455876977E-016.8522243992E-01+
*       -1.000000000E+00               0
GRID*               4491               04.8375431696E-015.8860868619E-01+
*       -1.000000000E+00               0
GRID*               4492               04.7454002640E-014.9127442610E-01+
*       -1.000000000E+00               0
GRID*               4493               03.0682774740E-015.9909946890E-01+
*       -1.000000000E+00               0
GRID*               4494               04.0072863097E-016.4267525099E-01+
*       -1.000000000E+00               0
GRID*               4495               03.9105127410E-015.4467435346E-01+
*       -1.000000000E+00               0
GRID*               4496               04.1171315342E-017.4069458870E-01+
*       -1.000000000E+00               0
GRID*               4497               03.1672918027E-016.9752739547E-01+
*       -1.000000000E+00               0
GRID*               4498               02.2277300017E-016.5357415615E-01+
*       -1.000000000E+00               0
GRID*               4499               06.0141681620E-018.2251430101E-01+
*       -1.000000000E+00               0
GRID*               4500               05.8790370205E-017.2549977075E-01+
*       -1.000000000E+00               0
GRID*               4501               05.7595969915E-016.2939482058E-01+
*       -1.000000000E+00               0
GRID*               4502               05.6565989924E-015.3356458824E-01+
*       -1.000000000E+00               0
GRID*               4503               05.5698033055E-014.3708409980E-01+
*       -1.000000000E+00               0
GRID*               4504               06.9531013676E-018.6274886382E-01+
*       -1.000000000E+00               0
GRID*               4505               06.8003793003E-017.6405474604E-01+
*       -1.000000000E+00               0
GRID*               4506               06.6712979095E-016.6802220513E-01+
*       -1.000000000E+00               0
GRID*               4507               06.5620886249E-015.7311171675E-01+
*       -1.000000000E+00               0
GRID*               4508               06.4668350098E-014.7834469932E-01+
*       -1.000000000E+00               0
GRID*               4509               06.3845338272E-013.8307228391E-01+
*       -1.000000000E+00               0
GRID*               4510               01.1103800213E+008.1046010585E-02+
*       -1.000000000E+00               0
GRID*               4511               07.1882135688E-013.2938860323E-01+
*       -1.000000000E+00               0
GRID*               4512               07.9733980567E-012.7530077148E-01+
*       -1.000000000E+00               0
GRID*               4513               08.7154810793E-012.2194244695E-01+
*       -1.000000000E+00               0
GRID*               4514               09.4546509130E-011.7465085667E-01+
*       -1.000000000E+00               0
GRID*               4515               01.0253858185E+001.2949914092E-01+
*       -1.000000000E+00               0
GRID*               4516               07.7108590301E-018.0116788293E-01+
*       -1.000000000E+00               0
GRID*               4517               07.5651914778E-017.0501793383E-01+
*       -1.000000000E+00               0
GRID*               4518               07.4517073494E-016.1104645733E-01+
*       -1.000000000E+00               0
GRID*               4519               07.3521032433E-015.1748852985E-01+
*       -1.000000000E+00               0
GRID*               4520               07.2649146736E-014.2354755970E-01+
*       -1.000000000E+00               0
GRID*               4521               08.4210386728E-017.3894197611E-01+
*       -1.000000000E+00               0
GRID*               4522               08.3133926386E-016.4851442433E-01+
*       -1.000000000E+00               0
GRID*               4523               08.2192209637E-015.5542769620E-01+
*       -1.000000000E+00               0
GRID*               4524               08.1195081205E-014.6316035008E-01+
*       -1.000000000E+00               0
GRID*               4525               08.0543904429E-013.6916055298E-01+
*       -1.000000000E+00               0
GRID*               4526               01.1031014249E+001.7930357905E-01+
*       -1.000000000E+00               0
GRID*               4527               08.8285240489E-013.1168035362E-01+
*       -1.000000000E+00               0
GRID*               4528               09.4107195270E-012.5330263958E-01+
*       -1.000000000E+00               0
GRID*               4529               01.0171684946E+002.2530067935E-01+
*       -1.000000000E+00               0
GRID*               4530               01.0940246308E+002.8263924131E-01+
*       -1.000000000E+00               0
GRID*               4531               08.9371137251E-014.1089896744E-01+
*       -1.000000000E+00               0
GRID*               4532               09.9136990533E-013.4007181061E-01+
*       -1.000000000E+00               0
GRID*               4533               09.0192965833E-016.8574122456E-01+
*       -1.000000000E+00               0
GRID*               4534               09.2277207041E-015.9363250754E-01+
*       -1.000000000E+00               0
GRID*               4535               08.8650722934E-015.0059301378E-01+
*       -1.000000000E+00               0
GRID*               4536               09.9089208428E-014.8149544144E-01+
*       -1.000000000E+00               0
GRID*               4537               03.7665346697E-013.4485985852E-01+
*       -1.000000000E+00               0
GRID*               4538               02.8431985293E-012.9234822857E-01+
*       -1.000000000E+00               0
GRID*               4539               01.9256900723E-012.3251297604E-01+
*       -1.000000000E+00               0
GRID*               4540               01.2146469281E-012.1982332015E-01+
*       -1.000000000E+00               0
GRID*               4541               01.8473877495E-013.4396008608E-01+
*       -1.000000000E+00               0
GRID*               4542               02.0144639612E-014.5414439408E-01+
*       -1.000000000E+00               0
GRID*               4543               02.8817655157E-013.9705358609E-01+
*       -1.000000000E+00               0
GRID*               4544               01.1075287023E+00-1.162530300E-01+
*       -1.000000000E+00               0
GRID*               4545               01.0269943528E+00-6.530526849E-02+
*       -1.000000000E+00               0
GRID*               4546               09.4649054632E-01-1.490164119E-02+
*       -1.000000000E+00               0
GRID*               4547               08.6611208726E-013.5083641737E-02+
*       -1.000000000E+00               0
GRID*               4548               07.8612063823E-018.5274674064E-02+
*       -1.000000000E+00               0
GRID*               4549               07.0603721036E-011.3633091819E-01+
*       -1.000000000E+00               0
GRID*               4550               06.2542496127E-011.8810955441E-01+
*       -1.000000000E+00               0
GRID*               4551               05.4411688587E-012.4016020918E-01+
*       -1.000000000E+00               0
GRID*               4552               04.6142790593E-012.9203530778E-01+
*       -1.000000000E+00               0
GRID*               4553               02.6523294712E-01-7.324151919E-01+
*       -1.000000000E+00               0
GRID*               4554               03.6991003317E-01-7.726717063E-01+
*       -1.000000000E+00               0
GRID*               4555               04.7463586406E-01-8.134246236E-01+
*       -1.000000000E+00               0
GRID*               4556               05.7291034701E-01-8.497561032E-01+
*       -1.000000000E+00               0
GRID*               4557               06.6680034408E-01-8.877564777E-01+
*       -1.000000000E+00               0
GRID*               4558               03.8518668519E-01-8.874760117E-01+
*       -1.000000000E+00               0
GRID*               4559               02.8470059898E-01-9.339919610E-01+
*       -1.000000000E+00               0
GRID*               4560               02.7961279409E-01-8.357219982E-01+
*       -1.000000000E+00               0
GRID*               4561               03.6048618930E-01-9.842275371E-01+
*       -1.000000000E+00               0
GRID*               4562               04.2913883579E-01-1.036928586E+00+
*       -1.000000000E+00               0
GRID*               4563               03.4345149055E-01-1.066973406E+00+
*       -1.000000000E+00               0
GRID*               4564               02.8708492757E-01-1.012083874E+00+
*       -1.000000000E+00               0
GRID*               4565               05.8673201603E-01-9.453708385E-01+
*       -1.000000000E+00               0
GRID*               4566               04.9472400461E-01-9.097034462E-01+
*       -1.000000000E+00               0
GRID*               4567               04.3605125018E-01-9.641467608E-01+
*       -1.000000000E+00               0
GRID*               4568               05.0866179851E-01-9.970853774E-01+
*       -1.000000000E+00               0
GRID*               4569               07.8408967342E-01-1.314084539E-02+
*       -1.000000000E+00               0
GRID*               4570               07.0144556382E-01-6.232514848E-02+
*       -1.000000000E+00               0
GRID*               4571               06.1839448749E-01-1.128412120E-01+
*       -1.000000000E+00               0
GRID*               4572               05.3486592278E-01-1.645099535E-01+
*       -1.000000000E+00               0
GRID*               4573               04.5137345033E-01-2.169419613E-01+
*       -1.000000000E+00               0
GRID*               4574               03.6903301223E-01-2.698117354E-01+
*       -1.000000000E+00               0
GRID*               4575               02.8988067019E-01-3.221641836E-01+
*       -1.000000000E+00               0
GRID*               4576               02.1483446648E-01-3.712480348E-01+
*       -1.000000000E+00               0
GRID*               4577               04.5033995763E-01-1.160488061E-01+
*       -1.000000000E+00               0
GRID*               4578               04.5135179854E-01-1.369562945E-02+
*       -1.000000000E+00               0
GRID*               4579               04.5382571753E-018.8760672347E-02+
*       -1.000000000E+00               0
GRID*               4580               04.5713387023E-011.9035837455E-01+
*       -1.000000000E+00               0
GRID*               4581               05.3645810562E-013.8047595089E-02+
*       -1.000000000E+00               0
GRID*               4582               06.1912642478E-01-1.235169541E-02+
*       -1.000000000E+00               0
GRID*               4583               05.3516651432E-01-6.357882987E-02+
*       -1.000000000E+00               0
GRID*               4584               06.2159859730E-018.7905586160E-02+
*       -1.000000000E+00               0
GRID*               4585               07.0314798124E-013.6877265557E-02+
*       -1.000000000E+00               0
GRID*               4586               05.3980432120E-011.3875552885E-01+
*       -1.000000000E+00               0
GRID*               4587               03.6712422275E-013.5647021095E-02+
*       -1.000000000E+00               0
GRID*               4588               02.8317466498E-018.5688451981E-02+
*       -1.000000000E+00               0
GRID*               4589               02.0524758737E-011.3492342287E-01+
*       -1.000000000E+00               0
GRID*               4590               01.3902193236E-011.6807410269E-01+
*       -1.000000000E+00               0
GRID*               4591               02.8472164980E-011.8756941099E-01+
*       -1.000000000E+00               0
GRID*               4592               03.7245099111E-012.4083191367E-01+
*       -1.000000000E+00               0
GRID*               4593               03.6965650337E-011.3799491824E-01+
*       -1.000000000E+00               0
GRID*               4594               03.6550826781E-01-1.704301473E-01+
*       -1.000000000E+00               0
GRID*               4595               03.6474603004E-01-6.810673293E-02+
*       -1.000000000E+00               0
GRID*               4596               01.8643566936E-01-1.881997515E-01+
*       -1.000000000E+00               0
GRID*               4597               02.8250053662E-01-2.265976832E-01+
*       -1.000000000E+00               0
GRID*               4598               02.0883290227E-01-2.823184249E-01+
*       -1.000000000E+00               0
GRID*               4599               02.7634362518E-01-1.252883086E-01+
*       -1.000000000E+00               0
GRID*               4600               02.7714103572E-01-1.959848905E-02+
*       -1.000000000E+00               0
GRID*               4601               01.8989876656E-013.2405460781E-02+
*       -1.000000000E+00               0
GRID*               4602               01.3892783239E-019.8840493061E-02+
*       -1.000000000E+00               0
GRID*               4603               01.7972851113E-01-7.923240359E-02+
*       -1.000000000E+00               0
GRID*               4604               05.3738561388E-01-2.637886978E-01+
*       -1.000000000E+00               0
GRID*               4605               05.4123580093E-01-3.613964444E-01+
*       -1.000000000E+00               0
GRID*               4606               05.4546674333E-01-4.579001627E-01+
*       -1.000000000E+00               0
GRID*               4607               05.4883786191E-01-5.543539252E-01+
*       -1.000000000E+00               0
GRID*               4608               05.5277504727E-01-6.521049020E-01+
*       -1.000000000E+00               0
GRID*               4609               05.6053533688E-01-7.512391842E-01+
*       -1.000000000E+00               0
GRID*               4610               04.6077687062E-01-5.074537554E-01+
*       -1.000000000E+00               0
GRID*               4611               03.7686491574E-01-4.599339704E-01+
*       -1.000000000E+00               0
GRID*               4612               02.9549784881E-01-4.144712512E-01+
*       -1.000000000E+00               0
GRID*               4613               04.5528396164E-01-3.151118399E-01+
*       -1.000000000E+00               0
GRID*               4614               03.7418069348E-01-3.656323430E-01+
*       -1.000000000E+00               0
GRID*               4615               04.5890840707E-01-4.111283718E-01+
*       -1.000000000E+00               0
GRID*               4616               02.9853187042E-01-5.031356756E-01+
*       -1.000000000E+00               0
GRID*               4617               02.2661029530E-01-5.487557762E-01+
*       -1.000000000E+00               0
GRID*               4618               02.2009921024E-01-4.609410156E-01+
*       -1.000000000E+00               0
GRID*               4619               04.5943126038E-01-6.050240298E-01+
*       -1.000000000E+00               0
GRID*               4620               03.7459444363E-01-5.509769859E-01+
*       -1.000000000E+00               0
GRID*               4621               04.6235906809E-01-7.085579126E-01+
*       -1.000000000E+00               0
GRID*               4622               03.5340506456E-01-6.550672381E-01+
*       -1.000000000E+00               0
GRID*               4623               02.9841657091E-01-5.776358632E-01+
*       -1.000000000E+00               0
GRID*               4624               02.4322749553E-01-6.350631873E-01+
*       -1.000000000E+00               0
GRID*               4625               09.4426129826E-01-1.122473339E-01+
*       -1.000000000E+00               0
GRID*               4626               08.6409546407E-01-1.587460265E-01+
*       -1.000000000E+00               0
GRID*               4627               07.8500140590E-01-2.071918031E-01+
*       -1.000000000E+00               0
GRID*               4628               07.0493043254E-01-2.578101099E-01+
*       -1.000000000E+00               0
GRID*               4629               06.2356027218E-01-3.092824666E-01+
*       -1.000000000E+00               0
GRID*               4630               06.2027590669E-01-2.115586393E-01+
*       -1.000000000E+00               0
GRID*               4631               07.0236756323E-01-1.604786977E-01+
*       -1.000000000E+00               0
GRID*               4632               07.8374162594E-01-1.107495257E-01+
*       -1.000000000E+00               0
GRID*               4633               08.6479736301E-01-6.247718728E-02+
*       -1.000000000E+00               0
GRID*               4634               06.2821172987E-01-4.053195693E-01+
*       -1.000000000E+00               0
GRID*               4635               06.3279352573E-01-5.005516025E-01+
*       -1.000000000E+00               0
GRID*               4636               06.3755209771E-01-5.959871831E-01+
*       -1.000000000E+00               0
GRID*               4637               06.4403202621E-01-6.924256653E-01+
*       -1.000000000E+00               0
GRID*               4638               06.5376593386E-01-7.896685063E-01+
*       -1.000000000E+00               0
GRID*               4639               01.0212830787E+00-1.622087351E-01+
*       -1.000000000E+00               0
GRID*               4640               09.4001427843E-01-2.044248945E-01+
*       -1.000000000E+00               0
GRID*               4641               08.6466065324E-01-2.491122092E-01+
*       -1.000000000E+00               0
GRID*               4642               07.8903146797E-01-3.002483275E-01+
*       -1.000000000E+00               0
GRID*               4643               07.0943750416E-01-3.524319523E-01+
*       -1.000000000E+00               0
GRID*               4644               07.4463704566E-01-8.271162902E-01+
*       -1.000000000E+00               0
GRID*               4645               07.1408485457E-01-4.470308068E-01+
*       -1.000000000E+00               0
GRID*               4646               07.1891370951E-01-5.413560970E-01+
*       -1.000000000E+00               0
GRID*               4647               07.2478110880E-01-6.361159812E-01+
*       -1.000000000E+00               0
GRID*               4648               07.3268643924E-01-7.310378999E-01+
*       -1.000000000E+00               0
GRID*               4649               08.1770926314E-01-7.663873445E-01+
*       -1.000000000E+00               0
GRID*               4650               07.9431706748E-01-3.943095525E-01+
*       -1.000000000E+00               0
GRID*               4651               07.9736512502E-01-4.885648865E-01+
*       -1.000000000E+00               0
GRID*               4652               08.0375992969E-01-5.817319678E-01+
*       -1.000000000E+00               0
GRID*               4653               08.0964610143E-01-6.757729559E-01+
*       -1.000000000E+00               0
GRID*               4654               01.0971838636E+00-2.143136003E-01+
*       -1.000000000E+00               0
GRID*               4655               01.0102426135E+00-2.575602313E-01+
*       -1.000000000E+00               0
GRID*               4656               09.3315580983E-01-2.827650210E-01+
*       -1.000000000E+00               0
GRID*               4657               08.7289560436E-01-3.389081921E-01+
*       -1.000000000E+00               0
GRID*               4658               01.0847547695E+00-3.171952396E-01+
*       -1.000000000E+00               0
GRID*               4659               09.8058566151E-01-3.711867885E-01+
*       -1.000000000E+00               0
GRID*               4660               08.8056895179E-01-4.387374239E-01+
*       -1.000000000E+00               0
GRID*               4661               08.7938290423E-01-7.145844456E-01+
*       -1.000000000E+00               0
GRID*               4662               08.7042888288E-01-5.284596190E-01+
*       -1.000000000E+00               0
GRID*               4663               09.0321279128E-01-6.229655623E-01+
*       -1.000000000E+00               0
GRID*               4664               09.7525035423E-01-5.127142759E-01+
*       -1.000000000E+00               0
GRID*               4665               0-1.147615215E-01-1.347977689E-01+
*       -1.000000000E+00               0
GRID*               4666               0-1.679614711E-01-1.292220251E-01+
*       -1.000000000E+00               0
GRID*               4667               0-2.486563652E-01-1.623887956E-01+
*       -1.000000000E+00               0
GRID*               4668               0-3.332027663E-01-1.495509418E-01+
*       -1.000000000E+00               0
GRID*               4669               0-4.021181265E-01-1.819160302E-01+
*       -1.000000000E+00               0
GRID*               4670               0-4.840154629E-01-2.159727555E-01+
*       -1.000000000E+00               0
GRID*               4671               0-5.710965473E-01-2.479635293E-01+
*       -1.000000000E+00               0
GRID*               4672               0-6.620550944E-01-2.778224790E-01+
*       -1.000000000E+00               0
GRID*               4673               0-7.565312093E-01-3.062240836E-01+
*       -1.000000000E+00               0
GRID*               4674               0-8.521418223E-01-3.335624724E-01+
*       -1.000000000E+00               0
GRID*               4675               0-9.448132085E-01-3.624643450E-01+
*       -1.000000000E+00               0
GRID*               4676               0-1.039081638E+00-4.100692825E-01+
*       -1.000000000E+00               0
GRID*               4677               0-5.549606774E-01-1.563061280E-01+
*       -1.000000000E+00               0
GRID*               4678               0-6.419410160E-01-1.833887545E-01+
*       -1.000000000E+00               0
GRID*               4679               0-7.336246148E-01-2.086120067E-01+
*       -1.000000000E+00               0
GRID*               4680               0-8.293877950E-01-2.347234705E-01+
*       -1.000000000E+00               0
GRID*               4681               0-9.262804081E-01-2.627507032E-01+
*       -1.000000000E+00               0
GRID*               4682               0-1.027123005E+00-2.933378982E-01+
*       -1.000000000E+00               0
GRID*               4683               0-4.708855282E-01-1.264145513E-01+
*       -1.000000000E+00               0
GRID*               4684               0-3.884460097E-01-9.646703326E-02+
*       -1.000000000E+00               0
GRID*               4685               0-2.967078521E-01-7.139357881E-02+
*       -1.000000000E+00               0
GRID*               4686               0-2.385000092E-01-2.142963050E-02+
*       -1.000000000E+00               0
GRID*               4687               0-2.074283877E-01-7.554952897E-02+
*       -1.000000000E+00               0
GRID*               4688               0-1.793477916E-01-1.222593458E-02+
*       -1.000000000E+00               0
GRID*               4689               0-4.591382388E-01-1.008034871E+00+
*       -1.000000000E+00               0
GRID*               4690               0-3.728092243E-01-9.528646239E-01+
*       -1.000000000E+00               0
GRID*               4691               0-2.662226593E-01-9.101214821E-01+
*       -1.000000000E+00               0
GRID*               4692               0-1.722556130E-01-8.349138193E-01+
*       -1.000000000E+00               0
GRID*               4693               0-8.741919757E-02-7.724927879E-01+
*       -1.000000000E+00               0
GRID*               4694               0-4.646485594E-03-7.142431941E-01+
*       -1.000000000E+00               0
GRID*               4695               07.6398876364E-02-6.576199566E-01+
*       -1.000000000E+00               0
GRID*               4696               01.1336122495E-01-9.523161254E-01+
*       -1.000000000E+00               0
GRID*               4697               02.0321405147E-02-9.128675086E-01+
*       -1.000000000E+00               0
GRID*               4698               0-7.346005413E-02-8.743035994E-01+
*       -1.000000000E+00               0
GRID*               4699               08.7809506619E-02-7.550815959E-01+
*       -1.000000000E+00               0
GRID*               4700               01.0057949970E-01-8.537485748E-01+
*       -1.000000000E+00               0
GRID*               4701               07.3913966071E-03-8.138055306E-01+
*       -1.000000000E+00               0
GRID*               4702               0-1.522515529E-01-9.397716056E-01+
*       -1.000000000E+00               0
GRID*               4703               0-2.216517692E-01-1.011558143E+00+
*       -1.000000000E+00               0
GRID*               4704               0-2.864324843E-01-1.079272551E+00+
*       -1.000000000E+00               0
GRID*               4705               0-3.043538751E-01-1.001960002E+00+
*       -1.000000000E+00               0
GRID*               4706               0-3.725808912E-01-1.049569656E+00+
*       -1.000000000E+00               0
GRID*               4707               0-1.952524332E-01-1.100552079E+00+
*       -1.000000000E+00               0
GRID*               4708               0-5.646740032E-02-9.728529955E-01+
*       -1.000000000E+00               0
GRID*               4709               0-1.281930926E-01-1.035088686E+00+
*       -1.000000000E+00               0
GRID*               4710               01.2647401574E-01-1.055723190E+00+
*       -1.000000000E+00               0
GRID*               4711               03.3856981992E-02-1.011237315E+00+
*       -1.000000000E+00               0
GRID*               4712               0-1.043916574E-01-1.120604588E+00+
*       -1.000000000E+00               0
GRID*               4713               0-4.063554956E-02-1.064614284E+00+
*       -1.000000000E+00               0
GRID*               4714               0-2.888661764E-02-1.137961875E+00+
*       -1.000000000E+00               0
GRID*               4715               04.0731398839E-02-1.109722896E+00+
*       -1.000000000E+00               0
GRID*               4716               0-6.825907147E-01-3.770348934E-01+
*       -1.000000000E+00               0
GRID*               4717               0-7.035266477E-01-4.808681516E-01+
*       -1.000000000E+00               0
GRID*               4718               0-7.208061742E-01-5.883580950E-01+
*       -1.000000000E+00               0
GRID*               4719               0-7.378781534E-01-6.946272470E-01+
*       -1.000000000E+00               0
GRID*               4720               0-7.618694522E-01-7.995739575E-01+
*       -1.000000000E+00               0
GRID*               4721               0-8.120135671E-01-5.190368597E-01+
*       -1.000000000E+00               0
GRID*               4722               0-8.760405046E-01-4.300839929E-01+
*       -1.000000000E+00               0
GRID*               4723               0-7.804406672E-01-4.072782008E-01+
*       -1.000000000E+00               0
GRID*               4724               0-9.121363357E-01-5.138950562E-01+
*       -1.000000000E+00               0
GRID*               4725               0-9.521889060E-01-5.918442902E-01+
*       -1.000000000E+00               0
GRID*               4726               0-9.965909118E-01-5.126005125E-01+
*       -1.000000000E+00               0
GRID*               4727               0-9.527502162E-01-4.465509332E-01+
*       -1.000000000E+00               0
GRID*               4728               0-8.338175006E-01-7.302804084E-01+
*       -1.000000000E+00               0
GRID*               4729               0-8.137742899E-01-6.305626603E-01+
*       -1.000000000E+00               0
GRID*               4730               0-8.788373204E-01-5.842241201E-01+
*       -1.000000000E+00               0
GRID*               4731               0-8.990250223E-01-6.627673074E-01+
*       -1.000000000E+00               0
GRID*               4732               0-5.882297856E-01-3.439290153E-01+
*       -1.000000000E+00               0
GRID*               4733               0-6.053354184E-01-4.442521022E-01+
*       -1.000000000E+00               0
GRID*               4734               0-6.218504340E-01-5.482965838E-01+
*       -1.000000000E+00               0
GRID*               4735               0-6.386447050E-01-6.552595072E-01+
*       -1.000000000E+00               0
GRID*               4736               0-6.591860506E-01-7.650463782E-01+
*       -1.000000000E+00               0
GRID*               4737               0-6.886856424E-01-8.698383640E-01+
*       -1.000000000E+00               0
GRID*               4738               0-5.499420247E-01-9.648895256E-01+
*       -1.000000000E+00               0
GRID*               4739               0-4.633014785E-01-9.017068254E-01+
*       -1.000000000E+00               0
GRID*               4740               0-3.666934075E-01-8.453258378E-01+
*       -1.000000000E+00               0
GRID*               4741               0-2.702328111E-01-7.876698100E-01+
*       -1.000000000E+00               0
GRID*               4742               0-1.798961202E-01-7.277702828E-01+
*       -1.000000000E+00               0
GRID*               4743               0-9.421596336E-02-6.705950795E-01+
*       -1.000000000E+00               0
GRID*               4744               0-1.152735096E-02-6.153260626E-01+
*       -1.000000000E+00               0
GRID*               4745               06.8383674327E-02-5.614915628E-01+
*       -1.000000000E+00               0
GRID*               4746               0-5.253626496E-01-5.077681931E-01+
*       -1.000000000E+00               0
GRID*               4747               0-4.431403814E-01-5.678157080E-01+
*       -1.000000000E+00               0
GRID*               4748               0-3.583718782E-01-6.245754895E-01+
*       -1.000000000E+00               0
GRID*               4749               0-2.704719167E-01-6.781872233E-01+
*       -1.000000000E+00               0
GRID*               4750               0-4.615018133E-01-7.876328530E-01+
*       -1.000000000E+00               0
GRID*               4751               0-4.530484304E-01-6.746266315E-01+
*       -1.000000000E+00               0
GRID*               4752               0-3.632700750E-01-7.328185368E-01+
*       -1.000000000E+00               0
GRID*               4753               0-5.392056223E-01-6.126267904E-01+
*       -1.000000000E+00               0
GRID*               4754               0-5.539253831E-01-7.234631626E-01+
*       -1.000000000E+00               0
GRID*               4755               0-5.725443199E-01-8.496004014E-01+
*       -1.000000000E+00               0
GRID*               4756               0-6.316961509E-01-9.353322625E-01+
*       -1.000000000E+00               0
GRID*               4757               0-1.820315353E-01-6.236570240E-01+
*       -1.000000000E+00               0
GRID*               4758               0-9.727778471E-02-5.698254324E-01+
*       -1.000000000E+00               0
GRID*               4759               0-1.546193516E-02-5.170063170E-01+
*       -1.000000000E+00               0
GRID*               4760               06.3705376969E-02-4.659730652E-01+
*       -1.000000000E+00               0
GRID*               4761               0-4.115254685E-01-2.705947002E-01+
*       -1.000000000E+00               0
GRID*               4762               0-4.217805233E-01-3.659437864E-01+
*       -1.000000000E+00               0
GRID*               4763               0-4.326868006E-01-4.648827306E-01+
*       -1.000000000E+00               0
GRID*               4764               0-4.979869027E-01-3.082611643E-01+
*       -1.000000000E+00               0
GRID*               4765               0-5.118600787E-01-4.055676002E-01+
*       -1.000000000E+00               0
GRID*               4766               0-3.435868656E-01-4.193536048E-01+
*       -1.000000000E+00               0
GRID*               4767               0-2.632820552E-01-4.711586968E-01+
*       -1.000000000E+00               0
GRID*               4768               0-1.810324686E-01-5.214004049E-01+
*       -1.000000000E+00               0
GRID*               4769               0-2.676457299E-01-5.731417293E-01+
*       -1.000000000E+00               0
GRID*               4770               0-3.513782307E-01-5.199009978E-01+
*       -1.000000000E+00               0
GRID*               4771               0-9.712300989E-02-4.694759231E-01+
*       -1.000000000E+00               0
GRID*               4772               0-1.599528140E-02-4.186600273E-01+
*       -1.000000000E+00               0
GRID*               4773               06.2999811194E-02-3.700317306E-01+
*       -1.000000000E+00               0
GRID*               4774               0-3.357494562E-01-3.203560299E-01+
*       -1.000000000E+00               0
GRID*               4775               0-2.570035367E-01-3.697541647E-01+
*       -1.000000000E+00               0
GRID*               4776               0-1.772844856E-01-4.199030443E-01+
*       -1.000000000E+00               0
GRID*               4777               0-1.709794055E-01-3.179571993E-01+
*       -1.000000000E+00               0
GRID*               4778               0-8.775984540E-02-2.691174347E-01+
*       -1.000000000E+00               0
GRID*               4779               0-1.249723301E-02-2.232206656E-01+
*       -1.000000000E+00               0
GRID*               4780               05.1248506984E-02-1.794226248E-01+
*       -1.000000000E+00               0
GRID*               4781               06.7881860858E-02-2.687244251E-01+
*       -1.000000000E+00               0
GRID*               4782               0-1.332253931E-02-3.197972166E-01+
*       -1.000000000E+00               0
GRID*               4783               0-9.359604020E-02-3.690269357E-01+
*       -1.000000000E+00               0
GRID*               4784               0-3.308854723E-01-2.258084092E-01+
*       -1.000000000E+00               0
GRID*               4785               0-2.506083415E-01-2.676400676E-01+
*       -1.000000000E+00               0
GRID*               4786               0-7.501205969E-02-1.767169891E-01+
*       -1.000000000E+00               0
GRID*               4787               0-1.588732247E-01-2.081438594E-01+
*       -1.000000000E+00               0
GRID*               4882               03.4801511619E-01-6.143391398E-01+
*       1.0000000000E+00               0
GRID*               4883               03.0872104923E-01-5.259803398E-01+
*       1.0000000000E+00               0
GRID*               4884               02.6923455710E-01-4.373960045E-01+
*       1.0000000000E+00               0
GRID*               4885               02.3028611057E-01-3.500899987E-01+
*       1.0000000000E+00               0
GRID*               4886               01.9285519014E-01-2.658747985E-01+
*       1.0000000000E+00               0
GRID*               4887               01.5733156642E-01-1.861716545E-01+
*       1.0000000000E+00               0
GRID*               4888               01.2932755149E-01-1.148688505E-01+
*       1.0000000000E+00               0
GRID*               4889               0-6.545384280E-019.1070644277E-01+
*       1.0000000000E+00               0
GRID*               4890               0-6.015777576E-018.2024729708E-01+
*       1.0000000000E+00               0
GRID*               4891               0-5.491438989E-017.3147130332E-01+
*       1.0000000000E+00               0
GRID*               4892               0-4.964344462E-016.4563148293E-01+
*       1.0000000000E+00               0
GRID*               4893               0-4.439039059E-015.6207387664E-01+
*       1.0000000000E+00               0
GRID*               4894               0-3.925793068E-014.8007532270E-01+
*       1.0000000000E+00               0
GRID*               4895               0-3.441019245E-013.9884479192E-01+
*       1.0000000000E+00               0
GRID*               4896               0-2.988447269E-013.1845870098E-01+
*       1.0000000000E+00               0
GRID*               4897               0-2.576109075E-012.4062356682E-01+
*       1.0000000000E+00               0
GRID*               4898               0-2.278560342E-011.7759159102E-01+
*       1.0000000000E+00               0
GRID*               4899               0-1.812190781E-011.4739622607E-01+
*       1.0000000000E+00               0
GRID*               4900               0-1.550736895E-019.1612524758E-02+
*       1.0000000000E+00               0
GRID*               4901               07.7579583369E-018.0170982784E-01+
*       1.0000000000E+00               0
GRID*               4902               07.0765035676E-017.1913431220E-01+
*       1.0000000000E+00               0
GRID*               4903               06.3475252551E-016.5277482662E-01+
*       1.0000000000E+00               0
GRID*               4904               05.5642210666E-015.8496081097E-01+
*       1.0000000000E+00               0
GRID*               4905               04.7675619783E-015.2366290547E-01+
*       1.0000000000E+00               0
GRID*               4906               04.0761314650E-014.6571293888E-01+
*       1.0000000000E+00               0
GRID*               4907               03.4645588922E-014.0138082789E-01+
*       1.0000000000E+00               0
GRID*               4908               02.8570428945E-013.3673223557E-01+
*       1.0000000000E+00               0
GRID*               4909               02.3164556288E-012.8738588329E-01+
*       1.0000000000E+00               0
GRID*               4910               01.6334283955E-012.8233802917E-01+
*       1.0000000000E+00               0
GRID*               4911               01.3828206691E-012.0508710077E-01+
*       1.0000000000E+00               0
GRID*               4912               07.1454280945E-021.6908038305E-01+
*       1.0000000000E+00               0
GRID*               4913               01.2765243002E-011.3190069497E-01+
*       1.0000000000E+00               0
GRID*               4914               01.0244248142E+004.4526406114E-01+
*       1.0000000000E+00               0
GRID*               4915               09.6588251982E-013.6921810225E-01+
*       1.0000000000E+00               0
GRID*               4916               09.0695112792E-012.9180130201E-01+
*       1.0000000000E+00               0
GRID*               4917               08.4789547702E-012.1310314453E-01+
*       1.0000000000E+00               0
GRID*               4918               07.8838989981E-011.3353668961E-01+
*       1.0000000000E+00               0
GRID*               4919               07.2723379636E-015.2654095081E-02+
*       1.0000000000E+00               0
GRID*               4920               06.6241082506E-01-3.085516588E-02+
*       1.0000000000E+00               0
GRID*               4921               05.9843744202E-01-1.191934299E-01+
*       1.0000000000E+00               0
GRID*               4922               05.3922897310E-01-2.058311256E-01+
*       1.0000000000E+00               0
GRID*               4923               04.8122238655E-01-2.864911827E-01+
*       1.0000000000E+00               0
GRID*               4924               04.2383165682E-01-3.648325420E-01+
*       1.0000000000E+00               0
GRID*               4925               03.6648254085E-01-4.442431136E-01+
*       1.0000000000E+00               0
GRID*               4926               07.3071027527E-01-6.153543927E-01+
*       1.0000000000E+00               0
GRID*               4927               06.8107237514E-01-5.324641158E-01+
*       1.0000000000E+00               0
GRID*               4928               06.3116758193E-01-4.695471048E-01+
*       1.0000000000E+00               0
GRID*               4929               06.1399048257E-01-3.902939069E-01+
*       1.0000000000E+00               0
GRID*               4930               05.8008733806E-01-2.983411126E-01+
*       1.0000000000E+00               0
GRID*               4931               04.0554267845E-01-5.309786571E-01+
*       1.0000000000E+00               0
GRID*               4932               04.6220076299E-01-4.512972750E-01+
*       1.0000000000E+00               0
GRID*               4933               05.1926564964E-01-3.752408071E-01+
*       1.0000000000E+00               0
GRID*               4934               05.3993304107E-01-6.182766063E-01+
*       1.0000000000E+00               0
GRID*               4935               04.9989768805E-01-5.355728906E-01+
*       1.0000000000E+00               0
GRID*               4936               04.4423587243E-01-6.170468452E-01+
*       1.0000000000E+00               0
GRID*               4937               05.5297473433E-01-4.601465466E-01+
*       1.0000000000E+00               0
GRID*               4938               05.8983183271E-01-5.388185888E-01+
*       1.0000000000E+00               0
GRID*               4939               06.3368912832E-01-6.182602308E-01+
*       1.0000000000E+00               0
GRID*               4940               08.2835729307E-01-6.146408244E-01+
*       1.0000000000E+00               0
GRID*               4941               07.7847130975E-01-5.253930597E-01+
*       1.0000000000E+00               0
GRID*               4942               07.1590709068E-01-4.285915027E-01+
*       1.0000000000E+00               0
GRID*               4943               06.8220659946E-01-3.160245627E-01+
*       1.0000000000E+00               0
GRID*               4944               06.4269924640E-01-2.170021836E-01+
*       1.0000000000E+00               0
GRID*               4945               09.2651878495E-01-6.164193464E-01+
*       1.0000000000E+00               0
GRID*               4946               08.7912527006E-01-5.268377388E-01+
*       1.0000000000E+00               0
GRID*               4947               08.3201584425E-01-4.344373454E-01+
*       1.0000000000E+00               0
GRID*               4948               07.9086081105E-01-3.339502137E-01+
*       1.0000000000E+00               0
GRID*               4949               07.5090956884E-01-2.302000495E-01+
*       1.0000000000E+00               0
GRID*               4950               07.0620547667E-01-1.305154199E-01+
*       1.0000000000E+00               0
GRID*               4951               07.6827170804E-01-4.386128213E-02+
*       1.0000000000E+00               0
GRID*               4952               08.2766732467E-013.9088869004E-02+
*       1.0000000000E+00               0
GRID*               4953               08.8549188587E-011.1828628290E-01+
*       1.0000000000E+00               0
GRID*               4954               09.4285153944E-011.9604496299E-01+
*       1.0000000000E+00               0
GRID*               4955               01.0002647602E+002.7379532258E-01+
*       1.0000000000E+00               0
GRID*               4956               01.0589872310E+003.5172345790E-01+
*       1.0000000000E+00               0
GRID*               4957               09.7712901933E-01-5.305762128E-01+
*       1.0000000000E+00               0
GRID*               4958               09.3143073344E-01-4.417692013E-01+
*       1.0000000000E+00               0
GRID*               4959               08.9353671596E-01-3.521092958E-01+
*       1.0000000000E+00               0
GRID*               4960               08.7147782215E-01-2.428195536E-01+
*       1.0000000000E+00               0
GRID*               4961               08.1475891558E-01-1.390470597E-01+
*       1.0000000000E+00               0
GRID*               4962               01.0913378575E+002.5640537409E-01+
*       1.0000000000E+00               0
GRID*               4963               08.7088735356E-01-5.141125021E-02+
*       1.0000000000E+00               0
GRID*               4964               09.2483509581E-012.7780576265E-02+
*       1.0000000000E+00               0
GRID*               4965               09.8026790149E-011.0244309136E-01+
*       1.0000000000E+00               0
GRID*               4966               01.0360440156E+001.7835548942E-01+
*       1.0000000000E+00               0
GRID*               4967               01.0656124703E+00-3.632145858E-01+
*       1.0000000000E+00               0
GRID*               4968               01.0263054262E+00-2.892606471E-01+
*       1.0000000000E+00               0
GRID*               4969               09.7890806190E-01-2.157172937E-01+
*       1.0000000000E+00               0
GRID*               4970               09.2040425586E-01-1.380327259E-01+
*       1.0000000000E+00               0
GRID*               4971               09.5175770439E-01-2.933548641E-01+
*       1.0000000000E+00               0
GRID*               4972               09.8236664920E-01-3.639629774E-01+
*       1.0000000000E+00               0
GRID*               4973               01.0243697850E+00-4.457982908E-01+
*       1.0000000000E+00               0
GRID*               4974               01.0991776630E+00-2.930981121E-01+
*       1.0000000000E+00               0
GRID*               4975               01.0840413920E+00-2.052786726E-01+
*       1.0000000000E+00               0
GRID*               4976               01.1255730386E+001.5940560936E-01+
*       1.0000000000E+00               0
GRID*               4977               09.6550599543E-01-5.517273277E-02+
*       1.0000000000E+00               0
GRID*               4978               01.0156606046E+001.4289560769E-02+
*       1.0000000000E+00               0
GRID*               4979               01.0755663541E+008.1106403059E-02+
*       1.0000000000E+00               0
GRID*               4980               01.0159793831E+00-1.284885137E-01+
*       1.0000000000E+00               0
GRID*               4981               01.1059433259E+00-1.021898693E-01+
*       1.0000000000E+00               0
GRID*               4982               01.0416271043E+00-5.683791864E-02+
*       1.0000000000E+00               0
GRID*               4983               01.1057030732E+00-1.311996506E-02+
*       1.0000000000E+00               0
GRID*               4984               03.8280301669E-01-2.794714458E-01+
*       1.0000000000E+00               0
GRID*               4985               02.8669626254E-01-2.733821786E-01+
*       1.0000000000E+00               0
GRID*               4986               03.2649380982E-01-3.582929654E-01+
*       1.0000000000E+00               0
GRID*               4987               04.3761166604E-01-1.998926502E-01+
*       1.0000000000E+00               0
GRID*               4988               03.3998205671E-01-1.960151185E-01+
*       1.0000000000E+00               0
GRID*               4989               02.4633892722E-01-1.922958938E-01+
*       1.0000000000E+00               0
GRID*               4990               04.9086913943E-01-1.141271567E-01+
*       1.0000000000E+00               0
GRID*               4991               03.8983779965E-01-1.148475306E-01+
*       1.0000000000E+00               0
GRID*               4992               02.9412574605E-01-1.158025450E-01+
*       1.0000000000E+00               0
GRID*               4993               02.0595270007E-01-1.171066425E-01+
*       1.0000000000E+00               0
GRID*               4994               03.7275854161E-013.1128569302E-01+
*       1.0000000000E+00               0
GRID*               4995               04.6491397955E-012.9099205827E-01+
*       1.0000000000E+00               0
GRID*               4996               05.5867901526E-012.7257880086E-01+
*       1.0000000000E+00               0
GRID*               4997               06.5512763979E-012.5297401847E-01+
*       1.0000000000E+00               0
GRID*               4998               07.5208881437E-012.3298913593E-01+
*       1.0000000000E+00               0
GRID*               4999               07.1717352263E-013.3397174049E-01+
*       1.0000000000E+00               0
GRID*               5000               06.8275628414E-014.3827866902E-01+
*       1.0000000000E+00               0
GRID*               5001               06.5463649515E-015.4645488948E-01+
*       1.0000000000E+00               0
GRID*               5002               05.2055264504E-013.6700538790E-01+
*       1.0000000000E+00               0
GRID*               5003               04.8039553268E-014.4012461498E-01+
*       1.0000000000E+00               0
GRID*               5004               04.3203726151E-013.7955714796E-01+
*       1.0000000000E+00               0
GRID*               5005               06.1763982647E-013.5446296838E-01+
*       1.0000000000E+00               0
GRID*               5006               05.7004838359E-014.6494854659E-01+
*       1.0000000000E+00               0
GRID*               5007               09.3450546686E-014.6378192464E-01+
*       1.0000000000E+00               0
GRID*               5008               08.4562401957E-014.8732182126E-01+
*       1.0000000000E+00               0
GRID*               5009               07.5289818109E-015.1503210170E-01+
*       1.0000000000E+00               0
GRID*               5010               08.1315913841E-013.1248973731E-01+
*       1.0000000000E+00               0
GRID*               5011               07.8105163729E-014.1274686157E-01+
*       1.0000000000E+00               0
GRID*               5012               08.7465081014E-013.8963423733E-01+
*       1.0000000000E+00               0
GRID*               5013               07.3012643417E-016.1825524089E-01+
*       1.0000000000E+00               0
GRID*               5014               08.2438387654E-015.8554531760E-01+
*       1.0000000000E+00               0
GRID*               5015               08.0832003784E-016.8959314384E-01+
*       1.0000000000E+00               0
GRID*               5016               09.9057339493E-015.3391706611E-01+
*       1.0000000000E+00               0
GRID*               5017               09.0977650454E-015.5437515938E-01+
*       1.0000000000E+00               0
GRID*               5018               09.6275416129E-016.0700285340E-01+
*       1.0000000000E+00               0
GRID*               5019               09.0089022642E-016.4861345256E-01+
*       1.0000000000E+00               0
GRID*               5020               05.9279111491E-011.7437656049E-01+
*       1.0000000000E+00               0
GRID*               5021               06.2472575753E-017.3311074556E-02+
*       1.0000000000E+00               0
GRID*               5022               06.9003602964E-011.5358073470E-01+
*       1.0000000000E+00               0
GRID*               5023               05.2780370638E-011.0151687688E-01+
*       1.0000000000E+00               0
GRID*               5024               04.6597601605E-014.7812799054E-02+
*       1.0000000000E+00               0
GRID*               5025               04.3522971742E-01-2.916087116E-02+
*       1.0000000000E+00               0
GRID*               5026               05.4358350481E-01-9.958540634E-03+
*       1.0000000000E+00               0
GRID*               5027               04.0359654303E-012.1702987882E-01+
*       1.0000000000E+00               0
GRID*               5028               04.3765386011E-011.2548130871E-01+
*       1.0000000000E+00               0
GRID*               5029               04.9739954973E-011.9704695254E-01+
*       1.0000000000E+00               0
GRID*               5030               03.8374028889E-015.1123525629E-02+
*       1.0000000000E+00               0
GRID*               5031               03.3742557185E-01-3.282773072E-02+
*       1.0000000000E+00               0
GRID*               5032               03.4231262784E-011.4009995782E-01+
*       1.0000000000E+00               0
GRID*               5033               02.7560787426E-015.4972051571E-02+
*       1.0000000000E+00               0
GRID*               5034               02.4339710675E-01-4.147016080E-02+
*       1.0000000000E+00               0
GRID*               5035               01.6584513285E-01-5.284507362E-02+
*       1.0000000000E+00               0
GRID*               5036               02.9938873486E-012.3804598085E-01+
*       1.0000000000E+00               0
GRID*               5037               01.8243994379E-011.6174816421E-01+
*       1.0000000000E+00               0
GRID*               5038               02.4907681811E-011.5238480821E-01+
*       1.0000000000E+00               0
GRID*               5039               02.0974051939E-012.2096479144E-01+
*       1.0000000000E+00               0
GRID*               5040               01.8771874321E-019.6272427997E-02+
*       1.0000000000E+00               0
GRID*               5041               01.8403546733E-011.8066668733E-02+
*       1.0000000000E+00               0
GRID*               5042               0-3.422561871E-015.6448835806E-01+
*       1.0000000000E+00               0
GRID*               5043               0-2.910173539E-016.5028088803E-01+
*       1.0000000000E+00               0
GRID*               5044               0-2.398206002E-017.3797546117E-01+
*       1.0000000000E+00               0
GRID*               5045               0-1.888933121E-018.3002648610E-01+
*       1.0000000000E+00               0
GRID*               5046               0-1.345900132E-019.3756404888E-01+
*       1.0000000000E+00               0
GRID*               5047               0-5.481668853E-021.0209005208E+00+
*       1.0000000000E+00               0
GRID*               5048               01.7477458434E-031.1075145475E+00+
*       1.0000000000E+00               0
GRID*               5049               0-2.946661450E-018.2509272298E-01+
*       1.0000000000E+00               0
GRID*               5050               0-3.965475442E-018.2167150519E-01+
*       1.0000000000E+00               0
GRID*               5051               0-4.985355333E-018.2096267482E-01+
*       1.0000000000E+00               0
GRID*               5052               0-3.935617218E-016.4878075496E-01+
*       1.0000000000E+00               0
GRID*               5053               0-4.461549045E-017.3423026435E-01+
*       1.0000000000E+00               0
GRID*               5054               0-3.438223833E-017.3629658293E-01+
*       1.0000000000E+00               0
GRID*               5055               0-1.848642093E-011.1009709327E+00+
*       1.0000000000E+00               0
GRID*               5056               0-2.161794779E-011.0122074955E+00+
*       1.0000000000E+00               0
GRID*               5057               0-2.500502832E-019.1778783399E-01+
*       1.0000000000E+00               0
GRID*               5058               0-1.371105971E-011.0375958738E+00+
*       1.0000000000E+00               0
GRID*               5059               0-9.429287059E-021.1094298743E+00+
*       1.0000000000E+00               0
GRID*               5060               0-2.767977953E-011.0826270178E+00+
*       1.0000000000E+00               0
GRID*               5061               0-3.109592784E-019.9490493420E-01+
*       1.0000000000E+00               0
GRID*               5062               0-3.508817315E-019.0868385237E-01+
*       1.0000000000E+00               0
GRID*               5063               0-4.490856042E-019.0722696489E-01+
*       1.0000000000E+00               0
GRID*               5064               0-5.509800637E-019.1286515667E-01+
*       1.0000000000E+00               0
GRID*               5065               0-3.679106411E-011.0633874390E+00+
*       1.0000000000E+00               0
GRID*               5066               0-4.030260849E-019.8614637115E-01+
*       1.0000000000E+00               0
GRID*               5067               0-4.439213291E-011.0482000361E+00+
*       1.0000000000E+00               0
GRID*               5068               0-4.956854968E-019.9433951202E-01+
*       1.0000000000E+00               0
GRID*               5069               03.6411389015E-011.0427322804E+00+
*       1.0000000000E+00               0
GRID*               5070               03.8527022993E-019.3762869552E-01+
*       1.0000000000E+00               0
GRID*               5071               04.1302520437E-018.3374399177E-01+
*       1.0000000000E+00               0
GRID*               5072               04.4005780665E-017.2790584016E-01+
*       1.0000000000E+00               0
GRID*               5073               04.6075462419E-016.2323289651E-01+
*       1.0000000000E+00               0
GRID*               5074               06.1825919901E-017.5235601457E-01+
*       1.0000000000E+00               0
GRID*               5075               05.2412930293E-018.0756637218E-01+
*       1.0000000000E+00               0
GRID*               5076               05.3914142491E-016.9097940010E-01+
*       1.0000000000E+00               0
GRID*               5077               06.2318140775E-019.3168577056E-01+
*       1.0000000000E+00               0
GRID*               5078               06.1787417049E-018.4419021518E-01+
*       1.0000000000E+00               0
GRID*               5079               06.9590434447E-018.7768544938E-01+
*       1.0000000000E+00               0
GRID*               5080               06.8189141616E-017.9926346637E-01+
*       1.0000000000E+00               0
GRID*               5081               04.5832570163E-011.0092424677E+00+
*       1.0000000000E+00               0
GRID*               5082               04.8069973066E-019.1019810919E-01+
*       1.0000000000E+00               0
GRID*               5083               05.5900486536E-018.9463077629E-01+
*       1.0000000000E+00               0
GRID*               5084               05.4552719558E-019.7449162561E-01+
*       1.0000000000E+00               0
GRID*               5085               02.6833478134E-011.0764105776E+00+
*       1.0000000000E+00               0
GRID*               5086               02.8437929481E-019.6905492793E-01+
*       1.0000000000E+00               0
GRID*               5087               03.1054315538E-018.6081047135E-01+
*       1.0000000000E+00               0
GRID*               5088               03.3855455145E-017.5629986172E-01+
*       1.0000000000E+00               0
GRID*               5089               03.6464692592E-016.5438360304E-01+
*       1.0000000000E+00               0
GRID*               5090               03.8755676936E-015.5633113390E-01+
*       1.0000000000E+00               0
GRID*               5091               0-2.949513811E-014.7959396201E-01+
*       1.0000000000E+00               0
GRID*               5092               0-2.437794317E-015.6261169151E-01+
*       1.0000000000E+00               0
GRID*               5093               0-1.914198082E-016.4772331739E-01+
*       1.0000000000E+00               0
GRID*               5094               0-1.376662879E-017.3551340853E-01+
*       1.0000000000E+00               0
GRID*               5095               0-8.057598759E-028.2743808087E-01+
*       1.0000000000E+00               0
GRID*               5096               0-1.636494414E-029.2011036174E-01+
*       1.0000000000E+00               0
GRID*               5097               04.9033272923E-021.0119875197E+00+
*       1.0000000000E+00               0
GRID*               5098               01.0257071643E-011.1058073927E+00+
*       1.0000000000E+00               0
GRID*               5099               0-3.488384537E-027.2825927650E-01+
*       1.0000000000E+00               0
GRID*               5100               06.6967757131E-027.1620575395E-01+
*       1.0000000000E+00               0
GRID*               5101               01.6755458911E-017.0002854244E-01+
*       1.0000000000E+00               0
GRID*               5102               02.6688996908E-016.7946164170E-01+
*       1.0000000000E+00               0
GRID*               5103               01.3289408467E-018.0100217619E-01+
*       1.0000000000E+00               0
GRID*               5104               09.4322526587E-029.0729758131E-01+
*       1.0000000000E+00               0
GRID*               5105               02.7027443002E-028.1650120429E-01+
*       1.0000000000E+00               0
GRID*               5106               02.3691824778E-017.8058088666E-01+
*       1.0000000000E+00               0
GRID*               5107               02.0511200431E-018.8748072677E-01+
*       1.0000000000E+00               0
GRID*               5108               01.7043780350E-011.0099755181E+00+
*       1.0000000000E+00               0
GRID*               5109               01.8938312569E-011.1125831339E+00+
*       1.0000000000E+00               0
GRID*               5110               0-2.504875782E-013.9488309873E-01+
*       1.0000000000E+00               0
GRID*               5111               0-1.997089382E-014.7482471499E-01+
*       1.0000000000E+00               0
GRID*               5112               0-1.471317326E-015.5723569140E-01+
*       1.0000000000E+00               0
GRID*               5113               0-9.268017747E-026.4161001769E-01+
*       1.0000000000E+00               0
GRID*               5114               02.0005753056E-016.0299962517E-01+
*       1.0000000000E+00               0
GRID*               5115               02.3084785721E-015.1003019128E-01+
*       1.0000000000E+00               0
GRID*               5116               02.6014439027E-014.2134702876E-01+
*       1.0000000000E+00               0
GRID*               5117               03.2132167556E-014.8929038485E-01+
*       1.0000000000E+00               0
GRID*               5118               02.9525994533E-015.8177871205E-01+
*       1.0000000000E+00               0
GRID*               5119               0-5.121447466E-025.4918061655E-01+
*       1.0000000000E+00               0
GRID*               5120               04.4231245723E-025.3874943094E-01+
*       1.0000000000E+00               0
GRID*               5121               01.3867495349E-015.2576246240E-01+
*       1.0000000000E+00               0
GRID*               5122               05.9677781760E-036.3207735875E-01+
*       1.0000000000E+00               0
GRID*               5123               01.0395582192E-016.1907784618E-01+
*       1.0000000000E+00               0
GRID*               5124               0-2.089506616E-013.0975640739E-01+
*       1.0000000000E+00               0
GRID*               5125               0-1.581142787E-013.8691170802E-01+
*       1.0000000000E+00               0
GRID*               5126               0-1.057106770E-014.6705080657E-01+
*       1.0000000000E+00               0
GRID*               5127               0-1.171212951E-024.5752540450E-01+
*       1.0000000000E+00               0
GRID*               5128               08.1846705636E-024.4729506453E-01+
*       1.0000000000E+00               0
GRID*               5129               01.7291206627E-014.3611897008E-01+
*       1.0000000000E+00               0
GRID*               5130               0-1.196277718E-011.4416115375E-01+
*       1.0000000000E+00               0
GRID*               5131               0-7.935880616E-022.0996400000E-01+
*       1.0000000000E+00               0
GRID*               5132               0-2.768608492E-022.8511929971E-01+
*       1.0000000000E+00               0
GRID*               5133               02.7770125223E-023.6568325028E-01+
*       1.0000000000E+00               0
GRID*               5134               0-1.701565042E-012.1828996049E-01+
*       1.0000000000E+00               0
GRID*               5135               0-1.183129378E-012.9775706189E-01+
*       1.0000000000E+00               0
GRID*               5136               0-6.568411221E-023.7658859825E-01+
*       1.0000000000E+00               0
GRID*               5137               02.0576314017E-013.5357667811E-01+
*       1.0000000000E+00               0
GRID*               5138               01.2084389345E-013.5878611314E-01+
*       1.0000000000E+00               0
GRID*               5139               01.3060473358E-031.9440021291E-01+
*       1.0000000000E+00               0
GRID*               5140               07.0770874604E-022.6550484873E-01+
*       1.0000000000E+00               0
GRID*               5141               0-2.001343595E-02-1.761547471E-01+
*       1.0000000000E+00               0
GRID*               5142               01.3750914738E-02-2.452631481E-01+
*       1.0000000000E+00               0
GRID*               5143               04.2405838384E-02-3.267467494E-01+
*       1.0000000000E+00               0
GRID*               5144               07.2278619590E-02-4.173889413E-01+
*       1.0000000000E+00               0
GRID*               5145               01.0885027442E-01-5.141159541E-01+
*       1.0000000000E+00               0
GRID*               5146               01.5114564460E-01-6.090862197E-01+
*       1.0000000000E+00               0
GRID*               5147               01.3504958698E-01-3.406969008E-01+
*       1.0000000000E+00               0
GRID*               5148               01.0119263975E-01-2.561732675E-01+
*       1.0000000000E+00               0
GRID*               5149               06.6141006884E-02-1.725855826E-01+
*       1.0000000000E+00               0
GRID*               5150               01.7109459814E-01-4.299701981E-01+
*       1.0000000000E+00               0
GRID*               5151               02.0997544973E-01-5.213901819E-01+
*       1.0000000000E+00               0
GRID*               5152               02.5003780493E-01-6.121346556E-01+
*       1.0000000000E+00               0
GRID*               5153               0-2.950051116E-011.7259109503E-01+
*       1.0000000000E+00               0
GRID*               5154               0-3.229467912E-019.6492455281E-02+
*       1.0000000000E+00               0
GRID*               5155               0-3.406637747E-012.6856128461E-02+
*       1.0000000000E+00               0
GRID*               5156               0-3.906307174E-01-2.814107939E-02+
*       1.0000000000E+00               0
GRID*               5157               0-4.426837189E-01-1.036049914E-01+
*       1.0000000000E+00               0
GRID*               5158               0-4.926370982E-01-1.852450410E-01+
*       1.0000000000E+00               0
GRID*               5159               0-5.412966826E-01-2.693107078E-01+
*       1.0000000000E+00               0
GRID*               5160               0-5.894557424E-01-3.543543808E-01+
*       1.0000000000E+00               0
GRID*               5161               0-6.375688748E-01-4.398258951E-01+
*       1.0000000000E+00               0
GRID*               5162               0-6.857830626E-01-5.254948702E-01+
*       1.0000000000E+00               0
GRID*               5163               0-7.340863239E-01-6.112585980E-01+
*       1.0000000000E+00               0
GRID*               5164               0-2.486752708E-01-6.144600511E-01+
*       1.0000000000E+00               0
GRID*               5165               0-2.995883792E-01-5.302970305E-01+
*       1.0000000000E+00               0
GRID*               5166               0-3.496946005E-01-4.453390448E-01+
*       1.0000000000E+00               0
GRID*               5167               0-3.987977938E-01-3.590006379E-01+
*       1.0000000000E+00               0
GRID*               5168               0-4.464562321E-01-2.722016974E-01+
*       1.0000000000E+00               0
GRID*               5169               0-4.427962436E-01-6.135522633E-01+
*       1.0000000000E+00               0
GRID*               5170               0-4.924604730E-01-5.278492265E-01+
*       1.0000000000E+00               0
GRID*               5171               0-5.413679531E-01-4.414312287E-01+
*       1.0000000000E+00               0
GRID*               5172               0-6.368235377E-01-6.118797828E-01+
*       1.0000000000E+00               0
GRID*               5173               0-5.889523076E-01-5.265244806E-01+
*       1.0000000000E+00               0
GRID*               5174               0-5.397210650E-01-6.126057828E-01+
*       1.0000000000E+00               0
GRID*               5175               0-3.457806064E-01-6.141454282E-01+
*       1.0000000000E+00               0
GRID*               5176               0-4.938110730E-01-3.566323159E-01+
*       1.0000000000E+00               0
GRID*               5177               0-4.453225811E-01-4.432403851E-01+
*       1.0000000000E+00               0
GRID*               5178               0-3.959091458E-01-5.290307111E-01+
*       1.0000000000E+00               0
GRID*               5179               0-1.520698126E-01-6.128876211E-01+
*       1.0000000000E+00               0
GRID*               5180               0-2.041135867E-01-5.299178209E-01+
*       1.0000000000E+00               0
GRID*               5181               0-2.538496044E-01-4.468257875E-01+
*       1.0000000000E+00               0
GRID*               5182               0-3.024656512E-01-3.608629790E-01+
*       1.0000000000E+00               0
GRID*               5183               0-3.511529298E-01-2.741488088E-01+
*       1.0000000000E+00               0
GRID*               5184               0-3.983012702E-01-1.887992112E-01+
*       1.0000000000E+00               0
GRID*               5185               0-5.363805323E-02-6.082710454E-01+
*       1.0000000000E+00               0
GRID*               5186               0-1.105588842E-01-5.252525403E-01+
*       1.0000000000E+00               0
GRID*               5187               0-1.610657947E-01-4.481950436E-01+
*       1.0000000000E+00               0
GRID*               5188               0-2.041721102E-01-3.633596520E-01+
*       1.0000000000E+00               0
GRID*               5189               0-2.523605907E-01-2.741112609E-01+
*       1.0000000000E+00               0
GRID*               5190               0-3.036387082E-01-1.894455714E-01+
*       1.0000000000E+00               0
GRID*               5191               0-3.502878952E-01-1.088082997E-01+
*       1.0000000000E+00               0
GRID*               5192               0-2.591791877E-01-1.082577005E-01+
*       1.0000000000E+00               0
GRID*               5193               0-2.190659808E-01-3.397724170E-02+
*       1.0000000000E+00               0
GRID*               5194               0-1.865313330E-013.3720499989E-02+
*       1.0000000000E+00               0
GRID*               5195               0-3.045807257E-01-3.642343651E-02+
*       1.0000000000E+00               0
GRID*               5196               0-2.337694471E-011.0711338189E-01+
*       1.0000000000E+00               0
GRID*               5197               0-2.677844879E-013.2017945782E-02+
*       1.0000000000E+00               0
GRID*               5198               0-2.169523357E-02-3.953362188E-01+
*       1.0000000000E+00               0
GRID*               5199               0-8.272783044E-02-4.483028578E-01+
*       1.0000000000E+00               0
GRID*               5200               04.9107167869E-02-6.061668123E-01+
*       1.0000000000E+00               0
GRID*               5201               0-5.406096868E-03-5.021675734E-01+
*       1.0000000000E+00               0
GRID*               5202               0-1.093097721E-01-3.731721946E-01+
*       1.0000000000E+00               0
GRID*               5203               0-1.404644996E-01-2.717955513E-01+
*       1.0000000000E+00               0
GRID*               5204               0-2.050477219E-01-1.841445593E-01+
*       1.0000000000E+00               0
GRID*               5205               0-1.674266755E-01-9.930872276E-02+
*       1.0000000000E+00               0
GRID*               5206               0-4.497842131E-02-3.077489899E-01+
*       1.0000000000E+00               0
GRID*               5207               0-5.780239600E-02-2.329003667E-01+
*       1.0000000000E+00               0
GRID*               5208               0-1.043682157E-01-1.651586979E-01+
*       1.0000000000E+00               0
GRID*               5209               0-3.427068992E-012.4332048464E-01+
*       1.0000000000E+00               0
GRID*               5210               0-3.814179031E-011.6457719793E-01+
*       1.0000000000E+00               0
GRID*               5211               0-4.181228667E-016.8534313064E-02+
*       1.0000000000E+00               0
GRID*               5212               0-4.837899312E-01-1.637075301E-02+
*       1.0000000000E+00               0
GRID*               5213               0-5.376558946E-01-9.864603444E-02+
*       1.0000000000E+00               0
GRID*               5214               0-5.881388533E-01-1.825859605E-01+
*       1.0000000000E+00               0
GRID*               5215               0-6.372737941E-01-2.676682482E-01+
*       1.0000000000E+00               0
GRID*               5216               0-6.858781257E-01-3.531915795E-01+
*       1.0000000000E+00               0
GRID*               5217               0-7.343581505E-01-4.389213285E-01+
*       1.0000000000E+00               0
GRID*               5218               0-7.829094170E-01-5.248310827E-01+
*       1.0000000000E+00               0
GRID*               5219               0-8.315566228E-01-6.108875637E-01+
*       1.0000000000E+00               0
GRID*               5220               0-9.711339619E-015.3215192294E-01+
*       1.0000000000E+00               0
GRID*               5221               0-9.158936029E-014.4770497400E-01+
*       1.0000000000E+00               0
GRID*               5222               0-8.653775153E-013.6353125981E-01+
*       1.0000000000E+00               0
GRID*               5223               0-8.232575921E-012.7856637842E-01+
*       1.0000000000E+00               0
GRID*               5224               0-7.962670560E-011.7617750405E-01+
*       1.0000000000E+00               0
GRID*               5225               0-7.363613646E-018.0124543156E-02+
*       1.0000000000E+00               0
GRID*               5226               0-6.847515960E-01-8.363724780E-03+
*       1.0000000000E+00               0
GRID*               5227               0-6.357224383E-01-9.596893976E-02+
*       1.0000000000E+00               0
GRID*               5228               0-4.927869746E-014.7421380828E-01+
*       1.0000000000E+00               0
GRID*               5229               0-5.350197171E-013.8705043900E-01+
*       1.0000000000E+00               0
GRID*               5230               0-5.596834672E-013.1071849734E-01+
*       1.0000000000E+00               0
GRID*               5231               0-6.175121756E-012.5091361067E-01+
*       1.0000000000E+00               0
GRID*               5232               0-6.795805494E-011.6926070569E-01+
*       1.0000000000E+00               0
GRID*               5233               0-4.806723127E-013.1657759438E-01+
*       1.0000000000E+00               0
GRID*               5234               0-3.899026135E-013.1923865401E-01+
*       1.0000000000E+00               0
GRID*               5235               0-4.391206050E-013.9571623990E-01+
*       1.0000000000E+00               0
GRID*               5236               0-5.242633253E-012.4101935881E-01+
*       1.0000000000E+00               0
GRID*               5237               0-4.327219086E-012.4091484541E-01+
*       1.0000000000E+00               0
GRID*               5238               0-6.318419851E-017.8185253634E-02+
*       1.0000000000E+00               0
GRID*               5239               0-5.765597587E-011.6254343905E-01+
*       1.0000000000E+00               0
GRID*               5240               0-4.771349641E-011.5911803541E-01+
*       1.0000000000E+00               0
GRID*               5241               0-5.838416322E-01-1.126585147E-02+
*       1.0000000000E+00               0
GRID*               5242               0-5.287784579E-017.3362230863E-02+
*       1.0000000000E+00               0
GRID*               5243               0-5.473918968E-015.5559828700E-01+
*       1.0000000000E+00               0
GRID*               5244               0-5.960536375E-014.6291301145E-01+
*       1.0000000000E+00               0
GRID*               5245               0-6.427479689E-013.5606943405E-01+
*       1.0000000000E+00               0
GRID*               5246               0-7.204494718E-012.6525363973E-01+
*       1.0000000000E+00               0
GRID*               5247               0-6.014527490E-016.4074996040E-01+
*       1.0000000000E+00               0
GRID*               5248               0-6.532218843E-015.4831762905E-01+
*       1.0000000000E+00               0
GRID*               5249               0-7.050051883E-014.5374308934E-01+
*       1.0000000000E+00               0
GRID*               5250               0-7.622907399E-013.6125240655E-01+
*       1.0000000000E+00               0
GRID*               5251               0-7.604530071E-015.4183170520E-01+
*       1.0000000000E+00               0
GRID*               5252               0-8.664121695E-015.3644018908E-01+
*       1.0000000000E+00               0
GRID*               5253               0-8.126878034E-014.5073833916E-01+
*       1.0000000000E+00               0
GRID*               5254               0-6.552799771E-017.2961074636E-01+
*       1.0000000000E+00               0
GRID*               5255               0-7.090338429E-016.3606201234E-01+
*       1.0000000000E+00               0
GRID*               5256               0-9.215830350E-016.1966047254E-01+
*       1.0000000000E+00               0
GRID*               5257               0-8.165255453E-016.2788020653E-01+
*       1.0000000000E+00               0
GRID*               5258               0-7.053193065E-018.2057660967E-01+
*       1.0000000000E+00               0
GRID*               5259               0-7.688844179E-017.3036037155E-01+
*       1.0000000000E+00               0
GRID*               5260               0-8.725784736E-017.0550704725E-01+
*       1.0000000000E+00               0
GRID*               5261               0-7.873632668E-018.1810915709E-01+
*       1.0000000000E+00               0
GRID*               5262               0-8.382044298E-017.7756273664E-01+
*       1.0000000000E+00               0
GRID*               5263               0-6.854987156E-01-1.814644415E-01+
*       1.0000000000E+00               0
GRID*               5264               0-7.342360096E-01-2.668921578E-01+
*       1.0000000000E+00               0
GRID*               5265               0-7.825236194E-01-3.523455163E-01+
*       1.0000000000E+00               0
GRID*               5266               0-8.310046634E-01-4.381089894E-01+
*       1.0000000000E+00               0
GRID*               5267               0-8.801717559E-01-5.244172832E-01+
*       1.0000000000E+00               0
GRID*               5268               0-9.297351751E-01-6.110379044E-01+
*       1.0000000000E+00               0
GRID*               5269               0-7.348567143E-01-9.538969429E-02+
*       1.0000000000E+00               0
GRID*               5270               0-7.834287735E-01-1.810744219E-01+
*       1.0000000000E+00               0
GRID*               5271               0-8.312591522E-01-2.664665317E-01+
*       1.0000000000E+00               0
GRID*               5272               0-8.789248250E-01-3.520843395E-01+
*       1.0000000000E+00               0
GRID*               5273               0-9.275197602E-01-4.379070825E-01+
*       1.0000000000E+00               0
GRID*               5274               0-9.783824243E-01-5.247578053E-01+
*       1.0000000000E+00               0
GRID*               5275               0-1.055088323E+003.5424185709E-01+
*       1.0000000000E+00               0
GRID*               5276               0-9.987102197E-012.7653134461E-01+
*       1.0000000000E+00               0
GRID*               5277               0-9.470972283E-012.0932012842E-01+
*       1.0000000000E+00               0
GRID*               5278               0-8.958749564E-011.4821477939E-01+
*       1.0000000000E+00               0
GRID*               5279               0-8.401222442E-017.5250546221E-02+
*       1.0000000000E+00               0
GRID*               5280               0-7.861563592E-01-9.379291351E-03+
*       1.0000000000E+00               0
GRID*               5281               0-8.766216622E-012.1963725331E-01+
*       1.0000000000E+00               0
GRID*               5282               0-9.121500793E-012.8451042829E-01+
*       1.0000000000E+00               0
GRID*               5283               0-9.605004410E-013.6145919489E-01+
*       1.0000000000E+00               0
GRID*               5284               0-1.015955241E+004.4381191307E-01+
*       1.0000000000E+00               0
GRID*               5285               0-1.023537191E+00-4.376459165E-01+
*       1.0000000000E+00               0
GRID*               5286               0-8.345681702E-01-9.585090675E-02+
*       1.0000000000E+00               0
GRID*               5287               0-8.823095939E-01-1.817872925E-01+
*       1.0000000000E+00               0
GRID*               5288               0-9.284845937E-01-2.679410354E-01+
*       1.0000000000E+00               0
GRID*               5289               0-9.744157972E-01-3.530391027E-01+
*       1.0000000000E+00               0
GRID*               5290               0-1.087123494E+002.6364067330E-01+
*       1.0000000000E+00               0
GRID*               5291               0-1.027808987E+001.9131913703E-01+
*       1.0000000000E+00               0
GRID*               5292               0-9.695968655E-011.4189046050E-01+
*       1.0000000000E+00               0
GRID*               5293               0-9.373637378E-017.0849902897E-02+
*       1.0000000000E+00               0
GRID*               5294               0-8.872445283E-01-1.139561694E-02+
*       1.0000000000E+00               0
GRID*               5295               0-1.065035979E+00-3.526683122E-01+
*       1.0000000000E+00               0
GRID*               5296               0-9.353693188E-01-9.775873212E-02+
*       1.0000000000E+00               0
GRID*               5297               0-9.822028219E-01-1.848492280E-01+
*       1.0000000000E+00               0
GRID*               5298               0-1.022984617E+00-2.720385539E-01+
*       1.0000000000E+00               0
GRID*               5299               0-1.118390260E+001.6773406676E-01+
*       1.0000000000E+00               0
GRID*               5300               0-1.047410466E+008.4357528074E-02+
*       1.0000000000E+00               0
GRID*               5301               0-9.900100741E-01-1.303247421E-02+
*       1.0000000000E+00               0
GRID*               5302               0-1.100664392E+00-2.808740659E-01+
*       1.0000000000E+00               0
GRID*               5303               0-1.036510313E+00-1.011198395E-01+
*       1.0000000000E+00               0
GRID*               5304               0-1.090129728E+00-1.901953611E-01+
*       1.0000000000E+00               0
GRID*               5305               0-1.099026032E+00-2.172580806E-02+
*       1.0000000000E+00               0
GRID*               5306               0-1.123106446E+00-1.010672447E-01+
*       1.0000000000E+00               0
GRID*               4217               0-9.605730878E-02-1.110148719E+00+
*       1.0000000000E+00               0
GRID*               4218               0-1.361282475E-01-1.023887011E+00+
*       1.0000000000E+00               0
GRID*               4219               0-1.757516637E-01-9.385232509E-01+
*       1.0000000000E+00               0
GRID*               4220               0-2.122561931E-01-8.563269293E-01+
*       1.0000000000E+00               0
GRID*               4221               0-2.503158931E-01-7.790056575E-01+
*       1.0000000000E+00               0
GRID*               4222               0-1.938829906E-01-1.097458133E+00+
*       1.0000000000E+00               0
GRID*               4223               0-3.401667407E-01-7.826186279E-01+
*       1.0000000000E+00               0
GRID*               4224               0-2.887525679E-01-8.448103889E-01+
*       1.0000000000E+00               0
GRID*               4225               0-2.680597234E-01-9.199229276E-01+
*       1.0000000000E+00               0
GRID*               4226               0-2.330874257E-01-1.007112002E+00+
*       1.0000000000E+00               0
GRID*               4227               0-2.911272811E-01-1.079236437E+00+
*       1.0000000000E+00               0
GRID*               4228               0-4.346133403E-01-7.875366380E-01+
*       1.0000000000E+00               0
GRID*               4229               0-3.679619691E-01-8.817703838E-01+
*       1.0000000000E+00               0
GRID*               4230               0-3.309328799E-01-9.876343668E-01+
*       1.0000000000E+00               0
GRID*               4231               0-8.222668418E-01-7.834347745E-01+
*       1.0000000000E+00               0
GRID*               4232               0-7.262466256E-01-7.933459245E-01+
*       1.0000000000E+00               0
GRID*               4233               0-6.279165705E-01-7.895151772E-01+
*       1.0000000000E+00               0
GRID*               4234               0-5.313529433E-01-7.878512688E-01+
*       1.0000000000E+00               0
GRID*               4235               0-3.914594878E-01-1.062546583E+00+
*       1.0000000000E+00               0
GRID*               4236               0-4.772025165E-01-8.754702007E-01+
*       1.0000000000E+00               0
GRID*               4237               0-4.347307586E-01-9.702231722E-01+
*       1.0000000000E+00               0
GRID*               4238               0-6.661704010E-01-8.853739617E-01+
*       1.0000000000E+00               0
GRID*               4239               0-5.707713432E-01-8.754815139E-01+
*       1.0000000000E+00               0
GRID*               4240               0-6.022626858E-01-9.609278280E-01+
*       1.0000000000E+00               0
GRID*               4241               0-5.229279834E-01-9.473169623E-01+
*       1.0000000000E+00               0
GRID*               4242               0-7.975865123E-02-9.451119130E-01+
*       1.0000000000E+00               0
GRID*               4243               0-1.977235368E-02-8.668024635E-01+
*       1.0000000000E+00               0
GRID*               4244               04.2378699225E-02-7.852865690E-01+
*       1.0000000000E+00               0
GRID*               4245               0-1.562369021E-01-7.798850075E-01+
*       1.0000000000E+00               0
GRID*               4246               0-1.173525057E-01-8.613145213E-01+
*       1.0000000000E+00               0
GRID*               4247               0-5.905873128E-02-7.821610857E-01+
*       1.0000000000E+00               0
GRID*               4248               0-4.212426327E-02-1.029165622E+00+
*       1.0000000000E+00               0
GRID*               4249               01.4484721063E-02-9.543904968E-01+
*       1.0000000000E+00               0
GRID*               4250               09.3288908281E-02-8.820609422E-01+
*       1.0000000000E+00               0
GRID*               4251               01.4634315193E-01-7.859017143E-01+
*       1.0000000000E+00               0
GRID*               4252               09.2930724799E-02-1.110987070E+00+
*       1.0000000000E+00               0
GRID*               4253               01.3621899167E-01-1.029790268E+00+
*       1.0000000000E+00               0
GRID*               4254               01.7133668635E-01-9.488402070E-01+
*       1.0000000000E+00               0
GRID*               4255               02.0416001815E-01-8.629184615E-01+
*       1.0000000000E+00               0
GRID*               4256               02.4309146457E-01-7.813520272E-01+
*       1.0000000000E+00               0
GRID*               4257               09.2473398991E-02-9.706852575E-01+
*       1.0000000000E+00               0
GRID*               4258               04.9173072976E-02-1.034694039E+00+
*       1.0000000000E+00               0
GRID*               4259               0-6.876947641E-04-1.113574543E+00+
*       1.0000000000E+00               0
GRID*               4260               01.8828384705E-01-1.100252913E+00+
*       1.0000000000E+00               0
GRID*               4261               02.3071483725E-01-1.012876405E+00+
*       1.0000000000E+00               0
GRID*               4262               02.6409957891E-01-9.255371550E-01+
*       1.0000000000E+00               0
GRID*               4263               02.8201884319E-01-8.484172500E-01+
*       1.0000000000E+00               0
GRID*               4264               03.3231648139E-01-7.840562627E-01+
*       1.0000000000E+00               0
GRID*               4265               02.8548778036E-01-1.082643646E+00+
*       1.0000000000E+00               0
GRID*               4266               03.2618286836E-01-9.920823706E-01+
*       1.0000000000E+00               0
GRID*               4267               03.6200280182E-01-8.858246151E-01+
*       1.0000000000E+00               0
GRID*               4268               04.2767752909E-01-7.905724615E-01+
*       1.0000000000E+00               0
GRID*               4269               08.1630215361E-01-7.897554219E-01+
*       1.0000000000E+00               0
GRID*               4270               05.2501317305E-01-7.914285065E-01+
*       1.0000000000E+00               0
GRID*               4271               06.2105599718E-01-7.940588095E-01+
*       1.0000000000E+00               0
GRID*               4272               07.2010612786E-01-7.985685097E-01+
*       1.0000000000E+00               0
GRID*               4273               03.8465180667E-01-1.066111544E+00+
*       1.0000000000E+00               0
GRID*               4274               04.2835536718E-01-9.747697309E-01+
*       1.0000000000E+00               0
GRID*               4275               04.7070268841E-01-8.787731401E-01+
*       1.0000000000E+00               0
GRID*               4276               06.5925035480E-01-8.901752356E-01+
*       1.0000000000E+00               0
GRID*               4277               05.6391306262E-01-8.796184566E-01+
*       1.0000000000E+00               0
GRID*               4278               05.9492742142E-01-9.654104710E-01+
*       1.0000000000E+00               0
GRID*               4279               05.1592137911E-01-9.514347265E-01+
*       1.0000000000E+00               0
GRID*               4788               0-9.189861448E-028.4732786860E-02+
*       1.0624999998E+00               0
GRID*               4789               0-4.198547495E-021.1773743711E-01+
*       1.0624999295E+00               0
GRID*               4790               01.7525321691E-021.2376382839E-01+
*       1.0624998154E+00               0
GRID*               4791               07.3046736329E-021.0143554669E-01+
*       1.0624999926E+00               0
GRID*               4792               01.1181402205E-015.5878584209E-02+
*       1.0624999521E+00               0
GRID*               4793               01.2497527319E-01-2.483121898E-03+
*       1.0624999971E+00               0
GRID*               4794               01.0950348852E-01-6.028202318E-02+
*       1.0625000728E+00               0
GRID*               4795               06.8962742057E-02-1.042550773E-01+
*       1.0624999908E+00               0
GRID*               4796               01.2582190280E-02-1.243638366E-01+
*       1.0624997893E+00               0
GRID*               4797               0-4.663283783E-02-1.159752745E-01+
*       1.0624999290E+00               0
GRID*               4798               0-9.519254006E-02-8.101436139E-02+
*       1.0624999887E+00               0
GRID*               4799               0-1.219317070E-01-2.752358230E-02+
*       1.0624999777E+00               0
GRID*               4800               0-9.189861223E-028.4732789179E-02+
*       1.1249999997E+00               0
GRID*               4801               0-4.198373203E-021.1773809684E-01+
*       1.1249998368E+00               0
GRID*               4802               01.7530013103E-021.2376321067E-01+
*       1.1249995084E+00               0
GRID*               4803               07.3046218561E-021.0143588936E-01+
*       1.1250000118E+00               0
GRID*               4804               01.1181471749E-015.5876905342E-02+
*       1.1249998342E+00               0
GRID*               4805               01.2497525812E-01-2.483284494E-03+
*       1.1249999896E+00               0
GRID*               4806               01.0950370302E-01-6.028150535E-02+
*       1.1250001092E+00               0
GRID*               4807               06.8962330331E-02-1.042553498E-01+
*       1.1249999758E+00               0
GRID*               4808               01.2578379461E-02-1.243643384E-01+
*       1.1249995400E+00               0
GRID*               4809               0-4.663454394E-02-1.159746287E-01+
*       1.1249998382E+00               0
GRID*               4810               0-9.519285187E-02-8.101393488E-02+
*       1.1249999604E+00               0
GRID*               4811               0-1.219318222E-01-2.752270703E-02+
*       1.1249999204E+00               0
GRID*               4812               0-9.189860912E-028.4732792376E-02+
*       1.1874999997E+00               0
GRID*               4813               0-4.198543087E-021.1773745379E-01+
*       1.1874999273E+00               0
GRID*               4814               01.7530005801E-021.2376321163E-01+
*       1.1874995090E+00               0
GRID*               4815               07.3046058498E-021.0143599529E-01+
*       1.1875000178E+00               0
GRID*               4816               01.1181557912E-015.5874825281E-02+
*       1.1874996881E+00               0
GRID*               4817               01.2497523714E-01-2.483510972E-03+
*       1.1874999792E+00               0
GRID*               4818               01.0950362843E-01-6.028168541E-02+
*       1.1875000966E+00               0
GRID*               4819               06.8962213667E-02-1.042554270E-01+
*       1.1874999719E+00               0
GRID*               4820               01.2584128536E-02-1.243635814E-01+
*       1.1874999163E+00               0
GRID*               4821               0-4.663264726E-02-1.159753466E-01+
*       1.1874999393E+00               0
GRID*               4822               0-9.519326869E-02-8.101336472E-02+
*       1.1874999226E+00               0
GRID*               4823               0-1.219319771E-01-2.752153064E-02+
*       1.1874998434E+00               0
GRID*               4824               0-9.189860581E-028.4732795776E-02+
*       1.2499999997E+00               0
GRID*               4825               0-4.199019803E-021.1773564931E-01+
*       1.2500001812E+00               0
GRID*               4826               01.7518195101E-021.2376476675E-01+
*       1.2500002820E+00               0
GRID*               4827               07.3046117195E-021.0143595644E-01+
*       1.2500000158E+00               0
GRID*               4828               01.1181628357E-015.5873124660E-02+
*       1.2499995688E+00               0
GRID*               4829               01.2497521430E-01-2.483757437E-03+
*       1.2499999678E+00               0
GRID*               4830               01.0950348471E-01-6.028203236E-02+
*       1.2500000722E+00               0
GRID*               4831               06.8963046506E-02-1.042548758E-01+
*       1.2500000028E+00               0
GRID*               4832               01.2594053334E-02-1.243622746E-01+
*       1.2500005659E+00               0
GRID*               4833               0-4.662802627E-02-1.159770958E-01+
*       1.2500001854E+00               0
GRID*               4834               0-9.519368393E-02-8.101279672E-02+
*       1.2499998850E+00               0
GRID*               4835               0-1.219321333E-01-2.752034417E-02+
*       1.2499997658E+00               0
GRID*               4836               0-9.189860326E-028.4732798399E-02+
*       1.3124999997E+00               0
GRID*               4837               0-4.199070786E-021.1773545632E-01+
*       1.3125002084E+00               0
GRID*               4838               01.7513035194E-021.2376544616E-01+
*       1.3125006198E+00               0
GRID*               4839               07.3046248866E-021.0143586930E-01+
*       1.3125000111E+00               0
GRID*               4840               01.1181630777E-015.5873066244E-02+
*       1.3124995648E+00               0
GRID*               4841               01.2497519541E-01-2.483961340E-03+
*       1.3124999584E+00               0
GRID*               4842               01.0950332914E-01-6.028240792E-02+
*       1.3125000458E+00               0
GRID*               4843               06.8963756067E-02-1.042544062E-01+
*       1.3125000292E+00               0
GRID*               4844               01.2594447429E-02-1.243622227E-01+
*       1.3125005918E+00               0
GRID*               4845               0-4.662762340E-02-1.159772483E-01+
*       1.3125002069E+00               0
GRID*               4846               0-9.519393508E-02-8.101245318E-02+
*       1.3124998623E+00               0
GRID*               4847               0-1.219322329E-01-2.751958842E-02+
*       1.3124997164E+00               0
GRID*               4848               0-9.189860347E-028.4732798183E-02+
*       1.3749999998E+00               0
GRID*               4849               0-4.198929372E-021.1773599161E-01+
*       1.3750001332E+00               0
GRID*               4850               01.7515626968E-021.2376510490E-01+
*       1.3750004503E+00               0
GRID*               4851               07.3046389059E-021.0143577652E-01+
*       1.3750000060E+00               0
GRID*               4852               01.1181442963E-015.5877600268E-02+
*       1.3749998833E+00               0
GRID*               4853               01.2497519230E-01-2.483994848E-03+
*       1.3749999568E+00               0
GRID*               4854               01.0950319189E-01-6.028273926E-02+
*       1.3750000226E+00               0
GRID*               4855               06.8963600874E-02-1.042545089E-01+
*       1.3750000239E+00               0
GRID*               4856               01.2591014657E-02-1.243626747E-01+
*       1.3750003672E+00               0
GRID*               4857               0-4.662904903E-02-1.159767086E-01+
*       1.3750001311E+00               0
GRID*               4858               0-9.519366385E-02-8.101282418E-02+
*       1.3749998869E+00               0
GRID*               4859               0-1.219321486E-01-2.752022839E-02+
*       1.3749997583E+00               0
GRID*               4860               0-9.189861475E-028.4732786586E-02+
*       1.4375000000E+00               0
GRID*               4861               0-4.198759152E-021.1773663593E-01+
*       1.4375000426E+00               0
GRID*               4862               01.7520183661E-021.2376450491E-01+
*       1.4375001521E+00               0
GRID*               4863               07.3046496563E-021.0143570537E-01+
*       1.4375000020E+00               0
GRID*               4864               01.1181258793E-015.5882046350E-02+
*       1.4375001957E+00               0
GRID*               4865               01.2497525313E-01-2.483338395E-03+
*       1.4374999871E+00               0
GRID*               4866               01.0950309537E-01-6.028297227E-02+
*       1.4375000062E+00               0
GRID*               4867               06.8963191416E-02-1.042547799E-01+
*       1.4375000089E+00               0
GRID*               4868               01.2587168355E-02-1.243631812E-01+
*       1.4375001155E+00               0
GRID*               4869               0-4.663072740E-02-1.159760733E-01+
*       1.4375000417E+00               0
GRID*               4870               0-9.519191026E-02-8.101522289E-02+
*       1.4375000462E+00               0
GRID*               4871               0-1.219314897E-01-2.752523254E-02+
*       1.4375000858E+00               0
GRID*               5307               09.1898614482E-028.4732786860E-02+
*       -1.062500000E+00               0
GRID*               5308               04.1985474946E-021.1773743711E-01+
*       -1.062499929E+00               0
GRID*               5309               0-1.752532169E-021.2376382839E-01+
*       -1.062499815E+00               0
GRID*               5310               0-7.304673633E-021.0143554669E-01+
*       -1.062499993E+00               0
GRID*               5311               0-1.118140221E-015.5878584209E-02+
*       -1.062499952E+00               0
GRID*               5312               0-1.249752732E-01-2.483121898E-03+
*       -1.062499997E+00               0
GRID*               5313               0-1.095034885E-01-6.028202318E-02+
*       -1.062500073E+00               0
GRID*               5314               0-6.896274206E-02-1.042550773E-01+
*       -1.062499991E+00               0
GRID*               5315               0-1.258219028E-02-1.243638366E-01+
*       -1.062499789E+00               0
GRID*               5316               04.6632837833E-02-1.159752745E-01+
*       -1.062499929E+00               0
GRID*               5317               09.5192540063E-02-8.101436139E-02+
*       -1.062499989E+00               0
GRID*               5318               01.2193170698E-01-2.752358230E-02+
*       -1.062499978E+00               0
GRID*               5319               09.1898612227E-028.4732789179E-02+
*       -1.125000000E+00               0
GRID*               5320               04.1983732026E-021.1773809684E-01+
*       -1.124999837E+00               0
GRID*               5321               0-1.753001310E-021.2376321067E-01+
*       -1.124999508E+00               0
GRID*               5322               0-7.304621856E-021.0143588936E-01+
*       -1.125000012E+00               0
GRID*               5323               0-1.118147175E-015.5876905342E-02+
*       -1.124999834E+00               0
GRID*               5324               0-1.249752581E-01-2.483284494E-03+
*       -1.124999990E+00               0
GRID*               5325               0-1.095037030E-01-6.028150535E-02+
*       -1.125000109E+00               0
GRID*               5326               0-6.896233033E-02-1.042553498E-01+
*       -1.124999976E+00               0
GRID*               5327               0-1.257837946E-02-1.243643384E-01+
*       -1.124999540E+00               0
GRID*               5328               04.6634543943E-02-1.159746287E-01+
*       -1.124999838E+00               0
GRID*               5329               09.5192851873E-02-8.101393488E-02+
*       -1.124999960E+00               0
GRID*               5330               01.2193182223E-01-2.752270703E-02+
*       -1.124999920E+00               0
GRID*               5331               09.1898609120E-028.4732792376E-02+
*       -1.187500000E+00               0
GRID*               5332               04.1985430874E-021.1773745379E-01+
*       -1.187499927E+00               0
GRID*               5333               0-1.753000580E-021.2376321163E-01+
*       -1.187499509E+00               0
GRID*               5334               0-7.304605850E-021.0143599529E-01+
*       -1.187500018E+00               0
GRID*               5335               0-1.118155791E-015.5874825281E-02+
*       -1.187499688E+00               0
GRID*               5336               0-1.249752371E-01-2.483510972E-03+
*       -1.187499979E+00               0
GRID*               5337               0-1.095036284E-01-6.028168541E-02+
*       -1.187500097E+00               0
GRID*               5338               0-6.896221367E-02-1.042554270E-01+
*       -1.187499972E+00               0
GRID*               5339               0-1.258412854E-02-1.243635814E-01+
*       -1.187499916E+00               0
GRID*               5340               04.6632647258E-02-1.159753466E-01+
*       -1.187499939E+00               0
GRID*               5341               09.5193268688E-02-8.101336472E-02+
*       -1.187499923E+00               0
GRID*               5342               01.2193197712E-01-2.752153064E-02+
*       -1.187499843E+00               0
GRID*               5343               09.1898605814E-028.4732795776E-02+
*       -1.250000000E+00               0
GRID*               5344               04.1990198031E-021.1773564931E-01+
*       -1.250000181E+00               0
GRID*               5345               0-1.751819510E-021.2376476675E-01+
*       -1.250000282E+00               0
GRID*               5346               0-7.304611719E-021.0143595644E-01+
*       -1.250000016E+00               0
GRID*               5347               0-1.118162836E-015.5873124660E-02+
*       -1.249999569E+00               0
GRID*               5348               0-1.249752143E-01-2.483757437E-03+
*       -1.249999968E+00               0
GRID*               5349               0-1.095034847E-01-6.028203236E-02+
*       -1.250000072E+00               0
GRID*               5350               0-6.896304651E-02-1.042548758E-01+
*       -1.250000003E+00               0
GRID*               5351               0-1.259405333E-02-1.243622746E-01+
*       -1.250000566E+00               0
GRID*               5352               04.6628026272E-02-1.159770958E-01+
*       -1.250000185E+00               0
GRID*               5353               09.5193683928E-02-8.101279672E-02+
*       -1.249999885E+00               0
GRID*               5354               01.2193213335E-01-2.752034417E-02+
*       -1.249999766E+00               0
GRID*               5355               09.1898603264E-028.4732798399E-02+
*       -1.312500000E+00               0
GRID*               5356               04.1990707859E-021.1773545632E-01+
*       -1.312500208E+00               0
GRID*               5357               0-1.751303519E-021.2376544616E-01+
*       -1.312500620E+00               0
GRID*               5358               0-7.304624887E-021.0143586930E-01+
*       -1.312500011E+00               0
GRID*               5359               0-1.118163078E-015.5873066244E-02+
*       -1.312499565E+00               0
GRID*               5360               0-1.249751954E-01-2.483961340E-03+
*       -1.312499958E+00               0
GRID*               5361               0-1.095033291E-01-6.028240792E-02+
*       -1.312500046E+00               0
GRID*               5362               0-6.896375607E-02-1.042544062E-01+
*       -1.312500029E+00               0
GRID*               5363               0-1.259444743E-02-1.243622227E-01+
*       -1.312500592E+00               0
GRID*               5364               04.6627623404E-02-1.159772483E-01+
*       -1.312500207E+00               0
GRID*               5365               09.5193935078E-02-8.101245318E-02+
*       -1.312499862E+00               0
GRID*               5366               01.2193223285E-01-2.751958842E-02+
*       -1.312499716E+00               0
GRID*               5367               09.1898603475E-028.4732798183E-02+
*       -1.375000000E+00               0
GRID*               5368               04.1989293721E-021.1773599161E-01+
*       -1.375000133E+00               0
GRID*               5369               0-1.751562697E-021.2376510490E-01+
*       -1.375000450E+00               0
GRID*               5370               0-7.304638906E-021.0143577652E-01+
*       -1.375000006E+00               0
GRID*               5371               0-1.118144296E-015.5877600268E-02+
*       -1.374999883E+00               0
GRID*               5372               0-1.249751923E-01-2.483994848E-03+
*       -1.374999957E+00               0
GRID*               5373               0-1.095031919E-01-6.028273926E-02+
*       -1.375000023E+00               0
GRID*               5374               0-6.896360087E-02-1.042545089E-01+
*       -1.375000024E+00               0
GRID*               5375               0-1.259101466E-02-1.243626747E-01+
*       -1.375000367E+00               0
GRID*               5376               04.6629049029E-02-1.159767086E-01+
*       -1.375000131E+00               0
GRID*               5377               09.5193663853E-02-8.101282418E-02+
*       -1.374999887E+00               0
GRID*               5378               01.2193214859E-01-2.752022839E-02+
*       -1.374999758E+00               0
GRID*               5379               09.1898614748E-028.4732786586E-02+
*       -1.437500000E+00               0
GRID*               5380               04.1987591523E-021.1773663593E-01+
*       -1.437500043E+00               0
GRID*               5381               0-1.752018366E-021.2376450491E-01+
*       -1.437500152E+00               0
GRID*               5382               0-7.304649656E-021.0143570537E-01+
*       -1.437500002E+00               0
GRID*               5383               0-1.118125879E-015.5882046350E-02+
*       -1.437500196E+00               0
GRID*               5384               0-1.249752531E-01-2.483338395E-03+
*       -1.437499987E+00               0
GRID*               5385               0-1.095030954E-01-6.028297227E-02+
*       -1.437500006E+00               0
GRID*               5386               0-6.896319142E-02-1.042547799E-01+
*       -1.437500009E+00               0
GRID*               5387               0-1.258716836E-02-1.243631812E-01+
*       -1.437500115E+00               0
GRID*               5388               04.6630727402E-02-1.159760733E-01+
*       -1.437500042E+00               0
GRID*               5389               09.5191910263E-02-8.101522289E-02+
*       -1.437500046E+00               0
GRID*               5390               01.2193148969E-01-2.752523254E-02+
*       -1.437500086E+00               0
GRID*               4872               06.2514481612E-02-1.121376694E-04+
*       -1.500000000E+00               0
GRID*               4873               01.3038584104E-026.1328239730E-02+
*       -1.500000000E+00               0
GRID*               4874               0-3.880362365E-02-1.980173191E-02+
*       -1.500000000E+00               0
GRID*               4875               0-5.806477804E-025.3706678129E-02+
*       -1.500000000E+00               0
GRID*               4876               01.2896385020E-02-7.472168925E-02+
*       -1.500000000E+00               0
GRID*               4877               0-6.251448161E-02-1.121376694E-04+
*       1.5000000000E+00               0
GRID*               4878               0-1.303858410E-026.1328239730E-02+
*       1.5000000000E+00               0
GRID*               4879               03.8803623648E-02-1.980173191E-02+
*       1.5000000000E+00               0
GRID*               4880               05.8064778037E-025.3706678129E-02+
*       1.5000000000E+00               0
GRID*               4881               0-1.289638502E-02-7.472168925E-02+
*       1.5000000000E+00               0
GRID*                  1               02.0781010581E-013.5246117115E-01+
*       1.5712175446E-01               0
GRID*                  2               02.2184638571E-014.1746752579E-01+
*       1.8574345192E-02               0
GRID*                  3               03.3848466924E-013.2969604256E-01+
*       4.0041382522E-02               0
GRID*                  4               02.2325137484E-012.3817657851E-01+
*       -4.438843884E-02               0
GRID*                  5               01.0247495906E+00-2.164494743E-01+
*       7.1904939501E-01               0
GRID*                  6               09.6246608098E-01-2.545269911E-01+
*       8.9815744487E-01               0
GRID*                  7               01.0558618279E+00-3.093733215E-01+
*       7.1271899301E-01               0
GRID*                  8               01.0940911751E+00-2.638200430E-01+
*       8.6541523609E-01               0
GRID*                  9               04.2278860237E-014.0850965142E-01+
*       1.4082642839E-01               0
GRID*                 10               02.7585272128E-014.7925912578E-01+
*       1.4171182632E-01               0
GRID*                 11               03.3672504699E-013.2729392906E-01+
*       2.6080739689E-01               0
GRID*                 12               01.7205185753E-014.1449783808E-01+
*       2.7189621902E-01               0
GRID*                 13               02.1414075606E-012.7758956959E-01+
*       2.7015222145E-01               0
GRID*                 14               03.0043223071E-012.0844082560E-01+
*       1.3157954080E-01               0
GRID*                 15               0-3.389794868E-02-3.148949018E-01+
*       1.0730073206E-01               0
GRID*                 16               0-1.374181746E-01-3.692002314E-01+
*       1.9842109537E-01               0
GRID*                 17               0-1.169338310E-03-4.189717048E-01+
*       2.1195709990E-01               0
GRID*                 18               0-3.324248236E-02-3.013450461E-01+
*       2.6798660248E-01               0
GRID*                 19               01.4787098624E-011.2584106477E-01+
*       1.5814101104E-01               0
GRID*                 20               01.0111689159E-01-2.108118719E-02+
*       1.3030212725E-01               0
GRID*                 21               01.2313511166E-01-3.185923491E-02+
*       2.4897598049E-01               0
GRID*                 22               03.9995798399E-021.2165000314E-01+
*       1.6496729956E-01               0
GRID*                 23               01.4124084341E-012.2085871780E-01+
*       2.0472870847E-01               0
GRID*                 24               01.2979999274E-011.9786285168E-01+
*       4.2466299182E-02               0
GRID*                 25               04.2113560616E-024.4115165950E-02+
*       1.7918046537E-02               0
GRID*                 26               02.0993223932E-016.7965178936E-02+
*       7.1331626552E-02               0
GRID*                 27               01.6575024412E-017.7330749057E-02+
*       3.0247687879E-01               0
GRID*                 28               02.7133403967E-018.3265158491E-02+
*       2.1223562444E-01               0
GRID*                 29               0-1.233571617E-012.8598848899E-01+
*       -5.972251013E-03               0
GRID*                 30               0-2.949161872E-013.1868852830E-01+
*       -8.564007307E-02               0
GRID*                 31               0-1.232261061E-012.8383677517E-01+
*       -1.733505065E-01               0
GRID*                 32               0-2.274760676E-012.1058291961E-01+
*       -7.655214000E-02               0
GRID*                 33               0-7.463459474E-021.3919416384E-01+
*       -9.551406857E-02               0
GRID*                 34               0-2.830584931E-012.0071199842E-01+
*       -2.566768055E-01               0
GRID*                 35               0-1.680659842E-011.5594917326E-01+
*       -1.700956630E-01               0
GRID*                 36               0-1.808222154E-014.7478911244E-02+
*       5.7863389206E-01               0
GRID*                 37               0-1.705377036E-01-7.648707334E-02+
*       5.6031947664E-01               0
GRID*                 38               0-2.587952222E-012.8461930671E-02+
*       6.3121076688E-01               0
GRID*                 39               0-3.072967248E-01-5.055070231E-02+
*       5.6269110560E-01               0
GRID*                 40               0-7.001612966E-021.8495666391E-01+
*       5.8422719634E-02               0
GRID*                 41               0-1.760687884E-011.0130663920E-01+
*       -4.863750747E-02               0
GRID*                 42               0-2.235841811E-012.2038219492E-01+
*       1.3869815437E-01               0
GRID*                 43               0-2.947037339E-013.3857911809E-01+
*       5.8252302086E-02               0
GRID*                 44               0-4.028144166E-012.0670602615E-01+
*       -9.358412715E-02               0
GRID*                 45               0-2.642985936E-018.8885593777E-02+
*       -1.421545218E-01               0
GRID*                 46               0-3.277291191E-011.3945693585E-01+
*       -2.387436420E-04               0
GRID*                 47               0-2.040104409E-014.2250083256E-02+
*       5.6608793968E-02               0
GRID*                 48               04.7324397564E-022.2984760275E-01+
*       -4.682956425E-02               0
GRID*                 49               0-5.393358856E-021.0182643975E+00+
*       9.2832062897E-01               0
GRID*                 50               01.3221334299E-01-1.168999335E-01+
*       9.3581540048E-02               0
GRID*                 51               0-7.493060739E-03-1.505527119E-01+
*       6.4965719849E-02               0
GRID*                 52               04.2846917597E-026.6020351478E-02+
*       -9.913164426E-02               0
GRID*                 53               03.4566068225E-02-7.706452214E-02+
*       -5.285630188E-02               0
GRID*                 54               0-1.069097254E-01-3.281754170E-02+
*       -3.625403834E-02               0
GRID*                 55               04.9900963501E-029.0861875342E-01+
*       9.0260966458E-01               0
GRID*                 56               0-9.818755186E-02-2.963603288E-02+
*       1.0956093612E-01               0
GRID*                 57               09.5186255045E-01-5.354640281E-01+
*       -5.563172577E-01               0
GRID*                 58               02.7129215849E-01-3.795246365E-02+
*       6.9682028746E-02               0
GRID*                 59               03.5228295285E-016.2695813122E-02+
*       1.0964497371E-01               0
GRID*                 60               04.1574168416E-01-1.417249501E-01+
*       8.4221015069E-02               0
GRID*                 61               02.3259431459E-01-1.747117573E-01+
*       3.1490498024E-02               0
GRID*                 62               03.3750988210E-01-2.079035290E-01+
*       -6.023365964E-02               0
GRID*                 63               04.3789940887E-011.2182584780E-02+
*       2.3393801613E-02               0
GRID*                 64               03.6996475161E-01-5.671847799E-02+
*       1.8853790614E-01               0
GRID*                 65               02.4997982801E-01-1.399471382E-01+
*       1.6957410122E-01               0
GRID*                 66               03.6780011031E-014.6556241209E-01+
*       -8.232534967E-02               0
GRID*                 67               03.3788166425E-014.7502474596E-01+
*       2.3603718220E-02               0
GRID*                 68               02.3028472575E-015.0610960576E-01+
*       -1.062235278E-01               0
GRID*                 69               03.1342258548E-015.8527497956E-01+
*       -5.849697191E-03               0
GRID*                 70               01.6043317639E-013.4569449595E-01+
*       -1.169722696E-01               0
GRID*                 71               02.9150180262E-013.6086862055E-01+
*       -1.314744745E-01               0
GRID*                 72               09.9088338065E-023.4984997866E-01+
*       3.7038289740E-02               0
GRID*                 73               06.1879551955E-023.1461237935E-01+
*       2.0012421636E-01               0
GRID*                 74               08.6823496257E-024.4432702825E-01+
*       1.1721581658E-01               0
GRID*                 75               0-3.811875845E-011.0539712712E+00+
*       7.0280947151E-01               0
GRID*                 76               02.2111029166E-01-1.078783085E+00+
*       9.1498547040E-01               0
GRID*                 77               02.0397239062E-015.6417710316E-01+
*       -2.449556677E-01               0
GRID*                 78               03.2793285751E-016.2612701053E-01+
*       -2.681716558E-01               0
GRID*                 79               02.3800595395E-017.1159578016E-01+
*       -3.268927778E-01               0
GRID*                 80               02.6222754248E-017.0739102486E-01+
*       -1.978526445E-01               0
GRID*                 81               06.9683615567E-024.5600104890E-01+
*       -1.998894600E-01               0
GRID*                 82               02.7486972329E-014.5996790221E-01+
*       -2.356362228E-01               0
GRID*                 83               02.5978703945E-015.7424138079E-01+
*       -3.764234350E-01               0
GRID*                 84               01.8743348200E-014.4812936174E-01+
*       -3.241173710E-01               0
GRID*                 85               03.0873231348E-016.1139598101E-01+
*       -1.365751853E-01               0
GRID*                 86               01.6695870623E-01-3.750508018E-01+
*       1.7483164522E-01               0
GRID*                 87               01.9251304279E-01-2.848150576E-01+
*       7.0673118252E-02               0
GRID*                 88               02.2072683504E-01-4.031321112E-01+
*       5.8187010242E-02               0
GRID*                 89               08.2574344692E-02-4.143014405E-01+
*       8.3261140682E-02               0
GRID*                 90               02.7876456081E-01-3.148236629E-01+
*       2.1064841870E-01               0
GRID*                 91               02.0140778435E-01-2.321052293E-01+
*       2.2670830274E-01               0
GRID*                 92               09.8632217264E-02-2.673290792E-01+
*       1.7269442158E-01               0
GRID*                 93               01.3343633510E-01-3.649242687E-01+
*       2.9935913208E-01               0
GRID*                 94               0-5.156562266E-01-7.451691750E-01+
*       -8.780597110E-01               0
GRID*                 95               03.0632799187E-01-3.834687955E-01+
*       3.1263238943E-01               0
GRID*                 96               03.4156531034E-01-4.238042307E-01+
*       1.8896400145E-01               0
GRID*                 97               02.1797736455E-01-4.935500682E-01+
*       1.7288834506E-01               0
GRID*                 98               0-6.553758957E-01-9.098938679E-01+
*       7.2781641300E-01               0
GRID*                 99               0-7.217227478E-01-8.345856738E-01+
*       5.8304267726E-01               0
GRID*                100               0-7.901997482E-01-7.915526212E-01+
*       6.8120575742E-01               0
GRID*                101               01.6615953185E-01-3.889818120E-03+
*       -2.027089351E-01               0
GRID*                102               01.8669936084E-012.8839654451E-03+
*       -7.234612849E-02               0
GRID*                103               01.0025539229E-01-9.924333558E-02+
*       -1.792017984E-01               0
GRID*                104               0-8.589362652E-016.8018398172E-01+
*       -8.159814576E-01               0
GRID*                105               0-8.213981616E-017.6130163509E-01+
*       -6.915417359E-01               0
GRID*                106               0-7.196703825E-016.8127830708E-01+
*       -6.703806246E-01               0
GRID*                107               0-7.676606559E-017.7808513554E-01+
*       -7.868238769E-01               0
GRID*                108               01.3181696688E-011.5933938028E-01+
*       -1.284723478E-01               0
GRID*                109               0-3.919968980E-021.5897300909E-01+
*       -2.462497239E-01               0
GRID*                110               02.5156896790E-021.5603686947E-04+
*       -2.213882672E-01               0
GRID*                111               0-3.239724492E-032.7135105292E-01+
*       -1.572267706E-01               0
GRID*                112               01.2255948151E-014.6985240005E-01+
*       -4.148617743E-02               0
GRID*                113               0-2.151011222E-023.6296416462E-01+
*       -5.204995703E-02               0
GRID*                114               0-2.791341220E-024.2631795232E-01+
*       8.8489488029E-02               0
GRID*                115               02.0934170870E-013.4850983280E-01+
*       -2.593239614E-01               0
GRID*                116               02.8436402911E-023.6671608424E-01+
*       -2.517094651E-01               0
GRID*                117               02.4837119276E-02-1.017189685E-01+
*       1.7405586757E-01               0
GRID*                118               0-2.243923184E-025.2406952624E-02+
*       2.5931098609E-01               0
GRID*                119               01.4690583756E-01-1.487763068E-01+
*       2.4030325131E-01               0
GRID*                120               02.9132865918E-02-5.496458237E-02+
*       3.2083536093E-01               0
GRID*                121               0-7.998596872E-02-8.514016454E-02+
*       2.4740132786E-01               0
GRID*                122               04.4090873009E-02-1.754194018E-01+
*       2.8713690756E-01               0
GRID*                123               0-6.521130383E-02-2.026656491E-01+
*       1.8944771312E-01               0
GRID*                124               01.6156745972E-022.6002082976E-01+
*       1.0067848727E-01               0
GRID*                125               0-1.524075374E-029.0850975638E-01+
*       8.1274462979E-01               0
GRID*                126               01.7302205512E-018.8089442198E-01+
*       8.3028384191E-01               0
GRID*                127               01.1519496112E-019.8101996075E-01+
*       8.8939157249E-01               0
GRID*                128               01.6314713440E-026.7924217562E-02+
*       1.0296622964E+00               0
GRID*                129               01.4864932096E-02-3.298836414E-02+
*       9.6869500638E-01               0
GRID*                130               0-4.180417026E-023.8454299474E-02+
*       1.0256111784E+00               0
GRID*                131               0-5.583763477E-024.0406159971E-02+
*       9.5133336134E-01               0
GRID*                132               08.5865089753E-01-4.751314225E-01+
*       8.1845348937E-01               0
GRID*                133               09.2660507429E-01-6.231013236E-01+
*       7.9739472980E-01               0
GRID*                134               01.0137803950E+00-4.867056642E-01+
*       8.0849279881E-01               0
GRID*                135               09.0171225543E-01-5.624928667E-01+
*       9.1618159601E-01               0
GRID*                136               0-2.241941703E-01-2.566069098E-01+
*       1.4311333694E-01               0
GRID*                137               0-1.476245535E-01-1.803742020E-01+
*       5.5641871457E-02               0
GRID*                138               0-1.682856068E-01-1.544991260E-01+
*       1.9454603479E-01               0
GRID*                139               0-3.849623193E-01-2.096124135E-01+
*       7.5928985224E-02               0
GRID*                140               0-3.709511899E-01-1.999968460E-01+
*       2.7378238201E-01               0
GRID*                141               0-2.914261336E-01-1.084418840E-01+
*       2.0822563848E-01               0
GRID*                142               0-1.915148902E-01-2.299636359E-01+
*       3.1449426710E-01               0
GRID*                143               0-3.013472231E-01-3.138163083E-01+
*       2.6171843411E-01               0
GRID*                144               0-1.771657019E-01-3.678486868E-01+
*       3.1391358295E-01               0
GRID*                145               0-1.373137345E-01-4.220122230E-01+
*       5.1960778254E-02               0
GRID*                146               0-2.132956934E-01-2.912110279E-01+
*       9.1410562760E-03               0
GRID*                147               0-3.215455857E-01-3.356292692E-01+
*       8.3129866673E-02               0
GRID*                148               02.2493846409E-012.5540813398E-01+
*       -2.012503624E-01               0
GRID*                149               08.3499845209E-01-2.354018817E-01+
*       9.0035334365E-01               0
GRID*                150               02.9239110391E-018.6714414021E-02+
*       -3.187922100E-02               0
GRID*                151               02.9819752859E-016.1701002950E-02+
*       -1.633054809E-01               0
GRID*                152               03.4486667157E-012.3001955409E-01+
*       -9.126065347E-02               0
GRID*                153               0-1.788021289E-01-1.933298767E-01+
*       6.8852008642E-01               0
GRID*                154               0-2.599341846E-01-1.841153336E-01+
*       6.1327614400E-01               0
GRID*                155               0-2.847969455E-01-2.087251204E-01+
*       7.2278189680E-01               0
GRID*                156               0-1.781865850E-01-8.372932204E-02+
*       6.7070783112E-01               0
GRID*                157               02.6155179938E-011.3798713044E-01+
*       -2.262060105E-01               0
GRID*                158               08.0136099076E-01-3.778039137E-01+
*       7.5357339139E-01               0
GRID*                159               08.0719400868E-01-4.547197560E-01+
*       9.0441118455E-01               0
GRID*                160               08.8755221960E-01-3.303135902E-01+
*       9.2396868744E-01               0
GRID*                161               0-1.571385939E-01-1.895741740E-01+
*       5.4725337326E-01               0
GRID*                162               01.9350614811E-026.2138240582E-02+
*       1.3549071944E+00               0
GRID*                163               0-7.412733476E-01-8.405191856E-01+
*       -8.587929416E-01               0
GRID*                164               0-1.187850764E-012.0859027195E-02+
*       -1.323698944E-01               0
GRID*                165               0-4.165292319E-02-1.602751708E-01+
*       -1.206004288E-01               0
GRID*                166               0-2.315079162E-01-5.834494919E-02+
*       -8.154325101E-02               0
GRID*                167               0-1.499065021E-01-8.608775261E-02+
*       -1.771695026E-01               0
GRID*                168               0-7.031382861E-03-4.402835662E-01+
*       8.3352255960E-01               0
GRID*                169               01.5823322269E-02-4.327211279E-01+
*       6.8952213364E-01               0
GRID*                170               0-7.715542320E-02-3.645312905E-01+
*       8.3305832325E-01               0
GRID*                171               02.3739634033E-02-3.343004571E-01+
*       7.3448328589E-01               0
GRID*                172               0-5.850066636E-01-9.457811843E-01+
*       -8.825901024E-01               0
GRID*                173               04.3196694304E-011.5806024106E-01+
*       2.1974934785E-02               0
GRID*                174               04.7638294014E-012.3172945315E-02+
*       1.7856303957E-01               0
GRID*                175               08.6451881838E-022.2315571317E-02+
*       -6.749372314E-01               0
GRID*                176               04.2225750518E-021.7219153206E-01+
*       -7.033532007E-01               0
GRID*                177               0-3.192784654E-021.2630200206E-01+
*       -7.411571184E-01               0
GRID*                178               0-2.509908737E-021.0243408118E-01+
*       -6.278449113E-01               0
GRID*                179               04.1870669635E-01-1.944951543E-01+
*       2.5903870346E-01               0
GRID*                180               02.8228340205E-01-8.510867822E-02+
*       3.3776508204E-01               0
GRID*                181               04.1167041466E-01-5.844745201E-03+
*       3.1497555147E-01               0
GRID*                182               02.7755270811E-014.4115083652E-02+
*       3.6089942611E-01               0
GRID*                183               03.7569957912E-021.8819650789E-01+
*       2.8092416993E-01               0
GRID*                184               0-7.403024698E-022.3890965153E-01+
*       2.0851262657E-01               0
GRID*                185               08.7828331345E-01-4.139624722E-01+
*       -9.029689923E-01               0
GRID*                186               08.2164201104E-01-5.327239028E-01+
*       -8.009693940E-01               0
GRID*                187               08.4587910534E-01-3.955394293E-01+
*       -8.074898506E-01               0
GRID*                188               07.7562339687E-01-4.780780544E-01+
*       -9.191284620E-01               0
GRID*                189               01.9088458033E-012.7245302903E-01+
*       8.1504832223E-01               0
GRID*                190               02.3644827792E-012.3110050321E-01+
*       7.4155475986E-01               0
GRID*                191               01.4192479283E-011.7526144971E-01+
*       7.5907214649E-01               0
GRID*                192               08.9219068249E-023.2173015527E-01+
*       7.4996908842E-01               0
GRID*                193               03.5761540750E-017.8504549505E-01+
*       8.0479777235E-01               0
GRID*                194               03.6308486838E-018.4487279284E-01+
*       9.0371116449E-01               0
GRID*                195               02.4353874671E-018.6615574944E-01+
*       9.0821589089E-01               0
GRID*                196               02.8311837142E-017.7019822876E-01+
*       9.0321618736E-01               0
GRID*                197               04.1590729716E-015.0189689517E-02+
*       -1.191409746E-01               0
GRID*                198               04.2090628639E-011.5676765943E-01+
*       1.6900846340E-01               0
GRID*                199               04.1574524993E-01-1.148374041E-01+
*       -6.790896417E-02               0
GRID*                200               02.8471509281E-01-6.438341164E-02+
*       -1.359085077E-01               0
GRID*                201               05.2937660884E-01-1.851702334E-01+
*       1.6634083879E-01               0
GRID*                202               02.4966465414E-011.0975385117E+00+
*       7.5780484706E-01               0
GRID*                203               0-4.589467206E-016.5513839388E-02+
*       8.0443994975E-03               0
GRID*                204               0-3.541099048E-011.6995610403E-02+
*       -9.958987529E-02               0
GRID*                205               0-5.244459876E-011.3522606070E-01+
*       -1.870407980E-01               0
GRID*                206               0-4.037074946E-011.0630325889E-01+
*       -2.315615008E-01               0
GRID*                207               0-2.850455734E-016.5831698582E-02+
*       -2.665659801E-01               0
GRID*                208               0-7.118982350E-01-8.686830059E-01+
*       4.3422006751E-01               0
GRID*                209               0-5.313329196E-012.2785350657E-02+
*       -1.778584847E-01               0
GRID*                210               0-4.843796839E-01-1.148042566E-02+
*       -3.140993119E-01               0
GRID*                211               0-4.156333878E-01-1.813797116E-02+
*       -2.287197890E-01               0
GRID*                212               0-3.345891971E-018.5199459449E-02+
*       -4.066718332E-01               0
GRID*                213               0-6.384278742E-02-1.547997959E-01+
*       6.4717559336E-01               0
GRID*                214               0-1.216144872E-01-2.506998672E-01+
*       6.9407398826E-01               0
GRID*                215               0-7.531665100E-02-1.646282578E-01+
*       7.7243317921E-01               0
GRID*                216               05.0833503468E-019.4496648230E-01+
*       4.5209880268E-01               0
GRID*                217               05.8742346766E-018.0980673575E-01+
*       5.1582132205E-01               0
GRID*                218               05.1831170323E-019.9616912540E-01+
*       5.6761003624E-01               0
GRID*                219               0-4.170158153E-011.6003710457E-01+
*       -3.332533779E-01               0
GRID*                220               0-5.956356006E-018.3838725986E-02+
*       -3.470991705E-01               0
GRID*                221               0-4.723380969E-011.0437715962E-01+
*       -4.511986795E-01               0
GRID*                222               0-3.840044908E-012.4785398896E-01+
*       -2.261973737E-01               0
GRID*                223               0-2.828473547E-012.8170895675E-01+
*       -3.885978099E-01               0
GRID*                224               0-3.804383134E-013.6860873994E-01+
*       -3.499684434E-01               0
GRID*                225               0-5.435798823E-013.3245903046E-01+
*       -3.813881899E-01               0
GRID*                226               0-5.105304263E-012.6744932660E-01+
*       -1.892690168E-01               0
GRID*                227               0-5.302373695E-011.9977186553E-01+
*       -3.444687865E-01               0
GRID*                228               06.7332530987E-01-1.325140910E-01+
*       9.1935018093E-01               0
GRID*                229               0-4.155271999E-011.9470407570E-01+
*       -4.490402782E-01               0
GRID*                230               0-1.453591719E-01-1.058539518E-01+
*       7.8261158743E-01               0
GRID*                231               0-1.870075439E-01-2.111276060E-01+
*       8.0621401334E-01               0
GRID*                232               02.6044078617E-01-3.165882298E-01+
*       -3.255169194E-02               0
GRID*                233               03.5244193449E-01-2.607952799E-01+
*       1.0007196978E-01               0
GRID*                234               05.8217716142E-02-2.531215628E-01+
*       2.0136241464E-02               0
GRID*                235               01.7326543666E-01-2.073256151E-01+
*       -1.099789631E-01               0
GRID*                236               0-9.663410211E-02-3.090379096E-01+
*       -4.113461701E-02               0
GRID*                237               0-2.812743987E-01-3.669458015E-01+
*       -6.614512423E-02               0
GRID*                238               0-3.856939347E-01-4.312629720E-01+
*       1.7265584031E-02               0
GRID*                239               0-2.355202679E-01-4.670551317E-01+
*       -4.823786457E-02               0
GRID*                240               07.6912943648E-01-3.496812957E-01+
*       9.0667500638E-01               0
GRID*                241               07.2906555504E-01-2.235007546E-01+
*       9.0224978218E-01               0
GRID*                242               06.4569942766E-01-3.761630298E-01+
*       9.2659589355E-01               0
GRID*                243               0-3.291120223E-01-4.271400638E-01+
*       -1.557531425E-01               0
GRID*                244               0-1.568312448E-01-3.539932835E-01+
*       -1.984371492E-01               0
GRID*                245               0-1.118512246E-01-4.238060488E-01+
*       -1.196396482E-01               0
GRID*                246               0-1.452975344E-01-5.392993609E-01+
*       -1.786431388E-01               0
GRID*                247               06.3417296987E-02-1.476968074E-01+
*       6.7026841830E-01               0
GRID*                248               0-4.539834278E-03-7.969015114E-02+
*       5.9402470922E-01               0
GRID*                249               0-4.894702721E-03-9.168061905E-02+
*       7.1997924837E-01               0
GRID*                250               0-3.172142589E-01-5.563413258E-01+
*       -1.493398294E-01               0
GRID*                251               0-1.657858086E-01-6.488467815E-01+
*       -1.064597387E-01               0
GRID*                252               0-2.498047326E-01-5.833222375E-01+
*       3.2992466163E-02               0
GRID*                253               0-6.166322116E-01-1.227612902E-01+
*       -6.620322739E-01               0
GRID*                254               0-4.830528885E-01-1.757409249E-01+
*       -6.795068336E-01               0
GRID*                255               0-6.681697163E-01-2.203494136E-01+
*       -5.914149634E-01               0
GRID*                256               0-5.770280490E-01-2.457648140E-01+
*       -7.264099001E-01               0
GRID*                257               0-4.158402552E-01-1.276378934E-01+
*       -1.627112384E-01               0
GRID*                258               0-5.019424657E-01-1.595828621E-01+
*       -2.847156562E-01               0
GRID*                259               0-3.722139113E-01-1.948290789E-01+
*       -2.661098220E-01               0
GRID*                260               0-4.982373362E-01-1.928750627E-01+
*       -5.215430261E-02               0
GRID*                261               0-4.463137981E-01-4.891975946E-02+
*       -6.980478710E-02               0
GRID*                262               0-5.474381450E-01-1.115132164E-01+
*       -1.767567362E-01               0
GRID*                263               0-2.336564004E-01-1.720727182E-01+
*       -2.635942192E-01               0
GRID*                264               0-2.489316226E-01-1.906952865E-01+
*       -4.007911610E-01               0
GRID*                265               0-1.775056447E-01-8.782136594E-02+
*       -3.103179029E-01               0
GRID*                266               0-1.449222030E-01-1.579033336E-01+
*       -3.872596300E-01               0
GRID*                267               0-1.447099868E-01-2.090641204E-01+
*       -1.915288130E-01               0
GRID*                268               0-3.802246880E-02-1.752251961E-01+
*       -2.558766419E-01               0
GRID*                269               0-1.373828744E-01-2.778303575E-01+
*       -3.176887284E-01               0
GRID*                270               0-2.751793987E-01-2.166759699E-01+
*       -1.294913274E-01               0
GRID*                271               0-2.866530956E-01-2.863614801E-01+
*       -2.431085132E-01               0
GRID*                272               0-2.589163016E-01-6.575994893E-02+
*       -2.193184779E-01               0
GRID*                273               0-1.109758394E-016.8988151385E-02+
*       -4.571612636E-01               0
GRID*                274               0-2.465911162E-015.1993643458E-03+
*       -4.898787202E-01               0
GRID*                275               0-1.086249582E-018.8500138060E-02+
*       -5.464745669E-01               0
GRID*                276               0-1.477319740E-011.3343330809E-03+
*       -5.394563684E-01               0
GRID*                277               0-2.747816966E-01-4.555861641E-01+
*       2.3851791187E-01               0
GRID*                278               0-3.201950826E-01-3.998960876E-01+
*       4.4739315967E-01               0
GRID*                279               0-4.865218476E-01-5.393616609E-01+
*       3.2431085345E-01               0
GRID*                280               0-3.960676992E-01-4.467359882E-01+
*       3.4643335055E-01               0
GRID*                281               0-3.100231681E-01-6.144224214E-01+
*       2.1405319223E-01               0
GRID*                282               0-4.012057478E-01-4.193699282E-01+
*       1.8700654529E-01               0
GRID*                283               0-6.144423521E-02-1.254023753E-02+
*       1.0163083422E+00               0
GRID*                284               0-7.271794036E-023.2122853952E-02+
*       1.0410205503E+00               0
GRID*                285               04.1081122638E-013.5876119132E-01+
*       -1.957170545E-01               0
GRID*                286               04.2615679973E-013.0128295001E-01+
*       -3.359505000E-01               0
GRID*                287               03.0551333787E-023.8658425112E-01+
*       -3.927638437E-01               0
GRID*                288               01.6556762312E-012.8322402991E-01+
*       -3.679837421E-01               0
GRID*                289               03.2792341601E-013.8390357981E-01+
*       -3.692044285E-01               0
GRID*                290               02.4334197339E-012.5889924072E-01+
*       -4.763368548E-01               0
GRID*                291               03.0254957264E-014.1900252038E-01+
*       -4.850054006E-01               0
GRID*                292               03.4682117685E-013.2241448136E-01+
*       -5.441304172E-01               0
GRID*                293               02.7701647866E-012.1989697851E-01+
*       -3.297719335E-01               0
GRID*                294               07.9193910104E-01-1.281455978E-01+
*       9.1050900653E-01               0
GRID*                295               0-3.010707539E-01-1.711352512E-01+
*       9.2048310307E-03               0
GRID*                296               0-3.577822131E-01-4.947547540E-01+
*       -8.014779450E-01               0
GRID*                297               0-3.158791834E-01-6.456481321E-01+
*       -8.969512416E-01               0
GRID*                298               0-4.163429293E-01-5.803031342E-01+
*       -9.061085726E-01               0
GRID*                299               0-2.960287067E-01-5.542805866E-01+
*       -9.075457359E-01               0
GRID*                300               0-1.215206566E-02-2.306247370E-04+
*       -7.278782849E-01               0
GRID*                301               02.1934998520E-034.6619888868E-02+
*       -8.081969987E-01               0
GRID*                302               0-1.532296584E-01-1.872257072E-01+
*       -6.175525069E-02               0
GRID*                303               0-6.734364978E-01-6.269461616E-01+
*       -8.074928834E-01               0
GRID*                304               0-7.803333177E-01-5.893639196E-01+
*       -7.909185535E-01               0
GRID*                305               0-6.892337470E-01-5.701561049E-01+
*       -9.196429091E-01               0
GRID*                306               0-7.945003714E-01-6.290555354E-01+
*       -9.303737714E-01               0
GRID*                307               0-3.867387433E-03-3.037527196E-01+
*       -1.768439104E-01               0
GRID*                308               06.5732463662E-02-4.552499202E-01+
*       -9.187427485E-02               0
GRID*                309               02.7281846463E-013.5221417627E-02+
*       -3.033466248E-01               0
GRID*                310               01.9007324019E-011.4351537325E-01+
*       -3.904262938E-01               0
GRID*                311               01.4038785749E-011.5300631544E-01+
*       -2.610589540E-01               0
GRID*                312               0-2.178994590E-019.0268736683E-02+
*       -6.023167745E-01               0
GRID*                313               0-2.276992119E-011.9827746248E-01+
*       -5.967941060E-01               0
GRID*                314               0-1.067749516E-011.9850941519E-01+
*       -6.384815005E-01               0
GRID*                315               04.0456446611E-017.0012450260E-02+
*       -3.252255617E-01               0
GRID*                316               03.7953491133E-011.8950606338E-01+
*       -2.320600471E-01               0
GRID*                317               0-2.401727218E-01-2.803827542E-01+
*       4.2155878221E-01               0
GRID*                318               0-6.029934173E-01-5.575881181E-01+
*       -9.027789101E-01               0
GRID*                319               0-9.182079301E-02-3.076201910E-01+
*       3.8936872463E-01               0
GRID*                320               0-1.721113730E-01-4.571239270E-01+
*       4.0750444620E-01               0
GRID*                321               0-1.601327397E-01-4.920908581E-01+
*       2.8647515835E-01               0
GRID*                322               0-3.068374111E-019.1307908678E-02+
*       1.2279347638E-01               0
GRID*                323               0-4.370339390E-012.0612332598E-01+
*       7.5728132443E-02               0
GRID*                324               0-3.397219362E-013.0838269036E-01+
*       2.4098413017E-01               0
GRID*                325               0-1.001096844E+00-4.679595777E-01+
*       -3.148919235E-01               0
GRID*                326               0-9.804631653E-01-5.248998361E-01+
*       -3.796352418E-01               0
GRID*                327               0-2.294159241E-011.9117330825E-01+
*       2.7881135902E-01               0
GRID*                328               0-1.447085874E-013.8712491333E-01+
*       2.0648358911E-01               0
GRID*                329               0-1.568568161E-019.5211963655E-02+
*       2.0506176835E-01               0
GRID*                330               01.0982114935E+001.7370328195E-01+
*       2.9686976807E-01               0
GRID*                331               01.1060467492E+006.9356176663E-02+
*       3.9700745669E-01               0
GRID*                332               0-2.525473366E-014.9608120546E-01+
*       -2.611012001E-02               0
GRID*                333               0-3.670480484E-014.8427262177E-01+
*       -4.796141418E-02               0
GRID*                334               0-3.859640753E-013.9741786268E-01+
*       -1.694539099E-01               0
GRID*                335               01.0713997665E+00-1.725604131E-01+
*       1.8032516160E-01               0
GRID*                336               01.1151747804E+00-4.657007281E-02+
*       1.0715784754E-01               0
GRID*                337               0-2.762218170E-01-3.146437742E-02+
*       8.7242532086E-02               0
GRID*                338               01.0930584456E+00-4.528698892E-02+
*       4.9299748239E-01               0
GRID*                339               01.1163948220E+00-9.965339082E-02+
*       2.7859096813E-01               0
GRID*                340               01.0905464465E+00-2.657458166E-01+
*       2.8142395082E-01               0
GRID*                341               01.1234387185E+00-1.223931099E-01+
*       4.2845044593E-01               0
GRID*                342               0-6.267169805E-022.6573797963E-02+
*       1.0915167772E+00               0
GRID*                343               07.9071622719E-02-4.253782877E-01+
*       -3.670588896E-01               0
GRID*                344               06.4882470685E-02-5.319043104E-01+
*       -2.758336935E-01               0
GRID*                345               02.0171905680E-01-4.804688353E-01+
*       -3.694103324E-01               0
GRID*                346               01.5575673383E-01-4.325199114E-01+
*       -2.462207254E-01               0
GRID*                347               01.7241494587E-01-3.348350212E-01+
*       -3.508640583E-01               0
GRID*                348               02.2436632332E-01-3.471705637E-01+
*       -4.678593722E-01               0
GRID*                349               01.5509634218E-02-4.181940776E-01+
*       -4.754777756E-01               0
GRID*                350               0-7.705760527E-02-4.412400811E-01+
*       -3.048708632E-01               0
GRID*                351               0-9.810088619E-03-3.233850000E-01+
*       -3.227120530E-01               0
GRID*                352               06.0122936289E-019.0849796246E-01+
*       8.8218769799E-01               0
GRID*                353               06.9741882022E-017.4448770413E-01+
*       9.1200105992E-01               0
GRID*                354               05.7816190387E-017.7549046032E-01+
*       8.9347519610E-01               0
GRID*                355               05.0113875490E-017.0240651337E-01+
*       7.3062601069E-01               0
GRID*                356               05.1116032832E-018.4083010301E-01+
*       8.0491889560E-01               0
GRID*                357               03.9567376737E-017.3681581416E-01+
*       8.9929781479E-01               0
GRID*                358               0-1.850011868E-02-3.159063999E-01+
*       -4.539665727E-01               0
GRID*                359               09.7384498175E-02-3.202903982E-01+
*       -4.571896180E-01               0
GRID*                360               01.0532288393E-01-2.485812635E-01+
*       -2.884749417E-01               0
GRID*                361               0-2.335994634E-01-4.078960895E-01+
*       -2.930819387E-01               0
GRID*                362               0-1.516747888E-01-4.461158928E-01+
*       -4.174373054E-01               0
GRID*                363               0-3.043165893E-01-3.368099667E-01+
*       -4.196271756E-01               0
GRID*                364               0-3.813342743E-01-3.589075991E-01+
*       -2.841040287E-01               0
GRID*                365               0-1.920117618E-014.1789056685E-01+
*       -9.364663997E-02               0
GRID*                366               0-1.757901913E-014.3362569865E-01+
*       5.8210568003E-02               0
GRID*                367               0-5.914437224E-024.4134372861E-01+
*       -1.007729737E-01               0
GRID*                368               03.2821288469E-026.2827866280E-01+
*       9.0523579210E-01               0
GRID*                369               09.6705103410E-027.1169519467E-01+
*       9.0421928934E-01               0
GRID*                370               04.3191312802E-01-1.024728484E+00+
*       -7.035301116E-01               0
GRID*                371               03.0709682471E-01-1.055979858E+00+
*       -6.021457487E-01               0
GRID*                372               05.0322511365E-01-6.792050769E-01+
*       -9.024729864E-01               0
GRID*                373               06.6869274808E-021.1127459932E+00+
*       8.5648524455E-01               0
GRID*                374               01.3350781055E-011.1162695095E+00+
*       6.8688555274E-01               0
GRID*                375               0-4.003605127E-01-2.389491330E-01+
*       -5.936532973E-02               0
GRID*                376               0-4.175810984E-01-7.209737431E-02+
*       1.2034367457E-01               0
GRID*                377               0-1.303553196E-011.0068313129E+00+
*       8.0124560207E-01               0
GRID*                378               0-1.207609590E-019.1024940771E-01+
*       8.9705112177E-01               0
GRID*                379               04.2465956118E-015.6250709514E-01+
*       4.6247442511E-02               0
GRID*                380               05.0638759294E-014.6920904397E-01+
*       5.9709254827E-02               0
GRID*                381               04.2539956429E-015.8519114400E-01+
*       2.2153050726E-01               0
GRID*                382               03.0068230745E-015.9024218131E-01+
*       1.7634508078E-01               0
GRID*                383               01.1309908432E-015.6867439023E-01+
*       3.6366065883E-02               0
GRID*                384               03.5929426156E-014.3480598734E-01+
*       3.4148787783E-01               0
GRID*                385               03.3731409742E-015.4907059025E-01+
*       3.0218494745E-01               0
GRID*                386               02.0386752023E-013.3609772268E-01+
*       3.9298836765E-01               0
GRID*                387               01.0671470812E-012.4656586426E-01+
*       3.4385700033E-01               0
GRID*                388               02.3672989771E-014.6410135825E-01+
*       4.1409087844E-01               0
GRID*                389               08.6671858459E-024.2138441807E-01+
*       4.0716362844E-01               0
GRID*                390               03.8657202145E-015.3914863825E-01+
*       -3.329999929E-01               0
GRID*                391               01.0509318051E-015.7402383509E-01+
*       -1.668030139E-01               0
GRID*                392               06.7650941998E-028.1011247777E-01+
*       8.9808583325E-01               0
GRID*                393               01.5684879439E-018.1008054307E-01+
*       9.1121872372E-01               0
GRID*                394               0-2.618440862E-013.4623474327E-01+
*       -2.475491325E-01               0
GRID*                395               0-1.680246814E-011.8462876344E-01+
*       -3.042850542E-01               0
GRID*                396               0-1.068827163E-014.2724329191E-01+
*       -2.278033254E-01               0
GRID*                397               0-2.481787616E-014.9575252968E-01+
*       -2.323788717E-01               0
GRID*                398               04.1540807027E-012.8322345067E-01+
*       1.5099544456E-01               0
GRID*                399               03.4770959549E-011.7327368417E-01+
*       2.7507029517E-01               0
GRID*                400               0-2.480016716E-01-4.604783230E-01+
*       -8.029649139E-01               0
GRID*                401               0-2.200270997E-01-4.971560885E-01+
*       -9.051936263E-01               0
GRID*                402               0-2.246537198E-01-3.869039581E-01+
*       -9.107953664E-01               0
GRID*                403               0-1.400066525E-01-4.396505863E-01+
*       -8.941579503E-01               0
GRID*                404               0-4.300344602E-01-1.036271973E+00+
*       -4.404214136E-01               0
GRID*                405               0-4.919767618E-01-9.861571691E-01+
*       -3.428202787E-01               0
GRID*                406               0-3.550491254E-01-9.513282699E-01+
*       -9.176127908E-01               0
GRID*                407               04.0425365789E-01-3.135062846E-01+
*       -2.223390260E-01               0
GRID*                408               02.1809938814E-01-3.179242398E-01+
*       -2.249349589E-01               0
GRID*                409               03.6600887645E-01-1.661287976E-01+
*       -1.686108497E-01               0
GRID*                410               0-1.882040806E-01-8.794504361E-03+
*       1.8051142983E-01               0
GRID*                411               0-1.131484354E-013.2629261276E-02+
*       -2.703054207E-01               0
GRID*                412               0-6.821035963E-01-8.950033153E-01+
*       1.7049091174E-01               0
GRID*                413               0-7.957505612E-015.3617254583E-01+
*       -9.089872391E-01               0
GRID*                414               0-7.019253382E-015.9055764389E-01+
*       -9.030898614E-01               0
GRID*                415               0-7.789207573E-015.0781339396E-01+
*       -7.242876187E-01               0
GRID*                416               0-6.648549051E-014.8435706148E-01+
*       -8.180817262E-01               0
GRID*                417               0-1.742020539E-02-1.899206460E-01+
*       9.1930766822E-01               0
GRID*                418               0-9.925095106E-02-1.633469442E-01+
*       8.8158215805E-01               0
GRID*                419               0-1.946556076E-02-8.151288526E-02+
*       7.8787565441E-01               0
GRID*                420               0-4.377574082E-011.3371371699E-01+
*       2.3275885574E-01               0
GRID*                421               0-3.379198525E-015.7818049196E-02+
*       2.8518030617E-01               0
GRID*                422               01.5617654745E-015.3065135533E-01+
*       2.8059760675E-01               0
GRID*                423               03.6887956209E-013.1435523257E-01+
*       3.8134316072E-01               0
GRID*                424               03.2177914220E-013.9046870475E-01+
*       4.7464978814E-01               0
GRID*                425               03.8278652334E-015.1693320501E-01+
*       4.2666138540E-01               0
GRID*                426               04.8552337516E-015.6715822955E-01+
*       3.5323666866E-01               0
GRID*                427               04.9817499551E-013.9875310466E-01+
*       3.6275685257E-01               0
GRID*                428               04.3918814706E-013.3653016355E-01+
*       4.6547184271E-01               0
GRID*                429               04.4943655301E-014.0779718453E-01+
*       2.4969337244E-01               0
GRID*                430               0-4.552325465E-012.0218437127E-01+
*       4.2785563524E-01               0
GRID*                431               0-4.586380011E-011.1825656106E-01+
*       5.7886952845E-01               0
GRID*                432               0-4.983627797E-012.6585899941E-01+
*       5.2640717596E-01               0
GRID*                433               0-5.476877438E-011.3382792921E-01+
*       5.0306446557E-01               0
GRID*                434               0-4.617677823E-012.9491324392E-01+
*       3.4699842361E-01               0
GRID*                435               0-6.252699017E-013.0682290005E-01+
*       4.4693085505E-01               0
GRID*                436               01.7640899366E-021.9693642375E-01+
*       7.7338344303E-01               0
GRID*                437               08.9288468950E-022.4599651784E-01+
*       8.3912227140E-01               0
GRID*                438               0-3.544162732E-011.0462702233E-01+
*       5.4634651449E-01               0
GRID*                439               0-2.983591707E-012.2937853019E-01+
*       5.0383149768E-01               0
GRID*                440               0-3.988215146E-011.9913398129E-01+
*       5.8216051336E-01               0
GRID*                441               0-3.134677734E-012.5225077640E-01+
*       3.6433510880E-01               0
GRID*                442               0-3.991659687E-011.4396284307E-01+
*       3.4319577682E-01               0
GRID*                443               03.3780784537E-01-4.171349800E-01+
*       4.9906227490E-02               0
GRID*                444               0-7.588418704E-03-4.259163584E-01+
*       -1.959263911E-01               0
GRID*                445               05.9413821380E-03-5.314233680E-01+
*       -3.973377263E-01               0
GRID*                446               0-1.589686300E-01-5.399331379E-01+
*       -3.453676007E-01               0
GRID*                447               01.5763709544E-01-1.339447632E-01+
*       3.8295847306E-01               0
GRID*                448               01.2357054479E-01-2.681051091E-02+
*       4.2242771504E-01               0
GRID*                449               0-1.196911881E-026.7859252558E-02+
*       4.0349293472E-01               0
GRID*                450               0-1.025682679E-012.1464549373E-03+
*       3.5724822318E-01               0
GRID*                451               0-7.475684603E-01-1.566050288E-03+
*       2.6295499827E-01               0
GRID*                452               0-6.516057386E-012.8076783069E-02+
*       3.9442167484E-01               0
GRID*                453               0-7.175811751E-01-1.232292315E-01+
*       3.6706737167E-01               0
GRID*                454               0-6.285096789E-011.9268980998E-02+
*       2.8252123129E-01               0
GRID*                455               01.1028202966E+00-3.354030955E-02+
*       -7.626892233E-01               0
GRID*                456               04.0584703705E-01-7.797532950E-01+
*       9.1406007311E-01               0
GRID*                457               0-5.322447659E-01-8.648481628E-02+
*       1.9571778488E-01               0
GRID*                458               0-5.335444809E-017.6756814428E-02+
*       1.6100433367E-01               0
GRID*                459               0-5.193921898E-013.3190164472E-02+
*       3.2614108685E-01               0
GRID*                460               07.5119418842E-01-1.930225198E-02+
*       9.0091079079E-01               0
GRID*                461               0-5.336509912E-011.7508706270E-01+
*       3.0744098949E-01               0
GRID*                462               0-5.930544823E-01-6.450911333E-02+
*       4.4913836882E-01               0
GRID*                463               0-6.488266658E-011.3074936669E-01+
*       2.0642510362E-01               0
GRID*                464               0-6.597684216E-011.1320303376E-02+
*       1.5653917844E-01               0
GRID*                465               0-7.478520027E-011.4061991224E-01+
*       2.8994231177E-01               0
GRID*                466               06.6266076318E-012.2697085751E-01+
*       2.2538202862E-01               0
GRID*                467               05.4971693437E-012.1622453294E-01+
*       1.2951485864E-01               0
GRID*                468               05.2772559312E-012.3921643793E-01+
*       3.3198032274E-01               0
GRID*                469               05.7518497546E-013.6056719353E-01+
*       1.3031080031E-01               0
GRID*                470               04.5276318512E-013.6213845749E-01+
*       -2.620966833E-02               0
GRID*                471               02.1462573706E-011.2169826883E-01+
*       -9.316414242E-01               0
GRID*                472               02.1055258181E-011.2647626356E-01+
*       -7.967170191E-01               0
GRID*                473               01.2526544016E-011.4577983974E-01+
*       -8.269015731E-01               0
GRID*                474               01.7488046094E-012.6981054219E-02+
*       -8.745880809E-01               0
GRID*                475               0-4.414665895E-01-2.890554965E-01+
*       -1.754671987E-01               0
GRID*                476               05.4738171280E-01-3.434207376E-01+
*       9.0530415431E-01               0
GRID*                477               04.4418232287E-01-3.422571926E-01+
*       9.0834921395E-01               0
GRID*                478               04.7987695958E-01-4.309810011E-01+
*       9.0593666992E-01               0
GRID*                479               0-6.048858691E-019.9849870748E-02+
*       4.7144007263E-02               0
GRID*                480               0-6.475659019E-012.7786467751E-02+
*       -9.177766022E-02               0
GRID*                481               0-5.667403166E-01-6.209145977E-02+
*       3.5728674905E-02               0
GRID*                482               0-3.918055487E-01-4.054682688E-02+
*       2.8721760179E-01               0
GRID*                483               0-5.261087505E-012.2959031549E-01+
*       -2.834833057E-02               0
GRID*                484               0-6.446100503E-011.5017845242E-01+
*       -1.012493753E-01               0
GRID*                485               0-3.232729337E-01-7.550709879E-01+
*       -9.021090389E-01               0
GRID*                486               08.5958563178E-021.0837946107E-01+
*       9.5087542792E-01               0
GRID*                487               0-1.949927368E-016.0941718588E-01+
*       6.0854777025E-02               0
GRID*                488               0-1.915688530E-015.7973225987E-01+
*       -7.635543123E-02               0
GRID*                489               0-2.109692668E-017.1720305083E-01+
*       -6.864172854E-02               0
GRID*                490               0-1.069888457E-016.6212140760E-01+
*       -1.138417431E-01               0
GRID*                491               0-9.493365517E-025.4959478097E-01+
*       6.7019997927E-03               0
GRID*                492               0-6.771146799E-025.5813490457E-01+
*       1.7696941421E-01               0
GRID*                493               0-1.759973230E-01-8.080879357E-01+
*       -9.116103383E-01               0
GRID*                494               0-9.413322562E-026.8936677749E-01+
*       8.7019565374E-02               0
GRID*                495               0-5.075554948E-01-6.345478517E-01+
*       -8.914520509E-01               0
GRID*                496               0-5.006980171E-01-5.246132536E-01+
*       -9.040039382E-01               0
GRID*                497               0-2.564239571E-014.9543086322E-01+
*       1.7625238081E-01               0
GRID*                498               0-2.050883199E-016.4386996844E-01+
*       1.9166496110E-01               0
GRID*                499               0-3.185847511E-016.0735087578E-01+
*       9.2565973507E-02               0
GRID*                500               0-1.206107143E-01-2.298256736E-01+
*       -4.667372435E-01               0
GRID*                501               0-2.067178110E-01-1.833423684E-01+
*       -5.336200844E-01               0
GRID*                502               0-3.165894116E-01-2.484971100E-01+
*       -5.479283925E-01               0
GRID*                503               0-2.854585020E-01-1.276483674E-01+
*       -4.931266572E-01               0
GRID*                504               0-1.908494552E-01-8.677234664E-02+
*       -4.441264555E-01               0
GRID*                505               0-3.481830227E-01-2.329592496E-01+
*       -4.150291943E-01               0
GRID*                506               0-2.128226462E-01-2.817574332E-01+
*       -4.985601568E-01               0
GRID*                507               01.6447815540E-01-3.823227700E-01+
*       -7.048640019E-02               0
GRID*                508               0-2.092824730E-01-6.083787919E-01+
*       -9.060623467E-01               0
GRID*                509               0-1.274862655E-01-5.492757226E-01+
*       -9.055899355E-01               0
GRID*                510               03.1654039787E-01-5.773301247E-01+
*       4.9256236651E-03               0
GRID*                511               02.0517077151E-01-5.268271833E-01+
*       9.0451073420E-04               0
GRID*                512               05.2337292952E-034.7855644364E-01+
*       7.0382722797E-01               0
GRID*                513               0-6.186420872E-023.7573814857E-01+
*       6.8598586087E-01               0
GRID*                514               01.3681297461E-023.6031493135E-01+
*       6.0392022203E-01               0
GRID*                515               09.6638036327E-023.3946171352E-01+
*       6.6046718273E-01               0
GRID*                516               02.5568038985E-01-4.639184899E-01+
*       -7.845151232E-02               0
GRID*                517               0-1.569732022E-013.5508453216E-01+
*       3.1984126238E-01               0
GRID*                518               0-3.605027128E-024.2917502239E-01+
*       2.5891256451E-01               0
GRID*                519               0-6.743518243E-025.3238287722E-01+
*       3.1023369935E-01               0
GRID*                520               0-7.336321991E-024.0378384997E-01+
*       4.1615591671E-01               0
GRID*                521               0-9.184515468E-02-2.153187364E-02+
*       6.3910745718E-01               0
GRID*                522               0-1.669763566E-013.1400508650E-01+
*       4.3741311298E-01               0
GRID*                523               0-4.781741250E-01-9.587023183E-01+
*       -7.973981357E-01               0
GRID*                524               0-4.578943632E-01-1.006247758E+00+
*       -9.001711014E-01               0
GRID*                525               0-2.038689535E-014.8085426254E-01+
*       3.1081832036E-01               0
GRID*                526               0-2.255360830E-014.4998711515E-01+
*       4.6061786244E-01               0
GRID*                527               0-2.668278734E-013.5803674469E-01+
*       3.8368625448E-01               0
GRID*                528               01.0797551805E+00-1.174578746E-01+
*       -5.261732802E-03               0
GRID*                529               09.7897630353E-01-1.659137628E-01+
*       1.0816438733E-01               0
GRID*                530               0-7.707183892E-025.5083271585E-01+
*       -1.902217265E-01               0
GRID*                531               0-9.147299640E-025.2435897647E-01+
*       -3.260698966E-01               0
GRID*                532               0-3.037803395E-02-1.090211198E+00+
*       -8.990354811E-01               0
GRID*                533               0-1.643456072E-013.9075275934E-01+
*       -3.434716504E-01               0
GRID*                534               0-9.047875828E-02-1.120860614E+00+
*       -7.361089093E-01               0
GRID*                535               06.4260824671E-02-1.119027317E+00+
*       -8.746618832E-01               0
GRID*                536               0-3.064463229E-01-8.990058888E-02+
*       -3.648722878E-01               0
GRID*                537               0-3.592468456E-01-6.804792088E-03+
*       -5.151798906E-01               0
GRID*                538               0-4.564124558E-011.0174405247E+00+
*       8.0907233301E-01               0
GRID*                539               0-5.227912215E-018.7500018822E-01+
*       8.0421311775E-01               0
GRID*                540               0-6.339573029E-019.2278585023E-01+
*       7.7971807788E-01               0
GRID*                541               0-5.555241353E-019.6865815288E-01+
*       6.7687502110E-01               0
GRID*                542               0-3.196635618E-011.2315444067E-01+
*       -5.262115941E-01               0
GRID*                543               0-2.187417962E-019.6435713633E-02+
*       -4.131529421E-01               0
GRID*                544               0-8.183819372E-01-5.240993725E-02+
*       5.1173643676E-01               0
GRID*                545               0-7.562902802E-016.3811152845E-02+
*       4.7598745461E-01               0
GRID*                546               0-7.215162634E-01-9.317159604E-02+
*       4.8170563568E-01               0
GRID*                547               0-7.787091155E-01-2.557216728E-02+
*       3.7850881112E-01               0
GRID*                548               0-6.297125319E-011.5807266157E-01+
*       4.2011835915E-01               0
GRID*                549               0-6.361399173E-016.5517847440E-02+
*       5.1565479874E-01               0
GRID*                550               0-7.353478816E-011.9971713282E-01+
*       5.5160972865E-01               0
GRID*                551               0-7.046317854E-01-7.860995892E-02+
*       6.1139277150E-01               0
GRID*                552               0-7.526373271E-019.0935143637E-02+
*       6.1006359203E-01               0
GRID*                553               0-8.586756686E-018.3462455717E-02+
*       4.8061993468E-01               0
GRID*                554               0-8.152979958E-01-4.272433106E-03+
*       6.2939920397E-01               0
GRID*                555               0-8.085061658E-011.7253512920E-01+
*       4.1088354186E-01               0
GRID*                556               0-8.707196208E-011.5990821174E-01+
*       5.5646872447E-01               0
GRID*                557               02.0861197884E-014.3800671466E-01+
*       5.3205715257E-01               0
GRID*                558               02.8958509406E-015.3655609465E-01+
*       4.8972970171E-01               0
GRID*                559               01.6875699969E-016.1804079579E-01+
*       4.9166377091E-01               0
GRID*                560               03.3990597610E-014.7959350639E-01+
*       6.2016452538E-01               0
GRID*                561               03.5399907174E-013.6303188160E-01+
*       5.7178699226E-01               0
GRID*                562               02.4216023809E-015.3579046788E-01+
*       6.0311535789E-01               0
GRID*                563               01.1506284832E-014.4110418871E-01+
*       5.9109035974E-01               0
GRID*                564               02.8205388281E-013.7413227528E-01+
*       6.5600399611E-01               0
GRID*                565               03.6954994645E-012.4516492533E-01+
*       4.7106321072E-01               0
GRID*                566               05.0535499495E-011.9316554820E-01+
*       5.0882768159E-01               0
GRID*                567               02.7960209905E-012.5679574996E-01+
*       3.9557485256E-01               0
GRID*                568               01.8053337129E-011.9054454752E-01+
*       4.8797129210E-01               0
GRID*                569               02.6979725825E-012.7915334802E-01+
*       5.5359186390E-01               0
GRID*                570               04.1316102096E-012.9391155937E-01+
*       5.7235413835E-01               0
GRID*                571               0-2.151256707E-013.2607363842E-01+
*       5.7364415003E-01               0
GRID*                572               0-1.120566785E-013.7140180702E-01+
*       5.8204413515E-01               0
GRID*                573               0-2.333046183E-013.2072192728E-01+
*       7.1583219617E-01               0
GRID*                574               0-1.379985558E-012.7110932881E-01+
*       6.7967671517E-01               0
GRID*                575               01.8539643302E-016.9916643341E-02+
*       4.3296718956E-01               0
GRID*                576               02.5953410654E-01-5.641925625E-02+
*       4.6923376956E-01               0
GRID*                577               02.9450536638E-018.8408460798E-02+
*       4.8001742412E-01               0
GRID*                578               02.3546781505E-011.5823635488E-01+
*       3.5804559384E-01               0
GRID*                579               04.0394565540E-011.3932914207E-01+
*       3.8566704738E-01               0
GRID*                580               0-1.288240601E-01-5.536420579E-01+
*       -1.954155311E-02               0
GRID*                581               01.3391954746E-01-5.324309721E-01+
*       -1.623973039E-01               0
GRID*                582               08.4989231036E-04-5.539257351E-01+
*       -1.569513488E-01               0
GRID*                583               0-3.296822122E-012.2881598536E-01+
*       -6.992968825E-01               0
GRID*                584               0-2.398668461E-011.4347409938E-01+
*       -7.808696330E-01               0
GRID*                585               0-3.100955472E-011.3991909979E-01+
*       -6.546887915E-01               0
GRID*                586               0-3.250785046E-011.8478010625E-01+
*       -8.151900481E-01               0
GRID*                587               0-1.350702063E-01-5.330786463E-01+
*       1.7202308840E-01               0
GRID*                588               07.2645547772E-03-3.959062919E-01+
*       3.5180946814E-01               0
GRID*                589               02.5019283417E-012.2214251258E-01+
*       -5.975841450E-01               0
GRID*                590               03.6420551691E-013.1412922551E-01+
*       -7.023303688E-01               0
GRID*                591               03.8774810617E-012.1118154485E-01+
*       -5.919566404E-01               0
GRID*                592               03.1236074401E-011.7401005751E-01+
*       -6.913340243E-01               0
GRID*                593               0-8.713991975E-02-4.759298207E-02+
*       7.3308612869E-01               0
GRID*                594               03.8940268515E-01-5.318975012E-02+
*       -3.036196646E-01               0
GRID*                595               0-6.971138403E-014.9633828148E-01+
*       9.0620564398E-01               0
GRID*                596               0-5.761516064E-015.3242703430E-01+
*       8.4240444363E-01               0
GRID*                597               0-7.154497323E-015.8296042570E-01+
*       8.8864930948E-01               0
GRID*                598               0-6.177235213E-015.9643082561E-01+
*       9.1358951476E-01               0
GRID*                599               0-4.299520457E-015.3539754929E-01+
*       -1.995469977E-01               0
GRID*                600               0-3.347254802E-015.9636558726E-01+
*       -1.170323939E-01               0
GRID*                601               0-3.441205870E-014.5923889977E-01+
*       7.4177804768E-02               0
GRID*                602               0-4.537017539E-015.7305967173E-01+
*       3.8822650544E-02               0
GRID*                603               0-4.911151761E-015.9527135793E-01+
*       -1.165980002E-01               0
GRID*                604               0-4.125615308E-013.9121970695E-01+
*       -5.720578985E-03               0
GRID*                605               02.7788882923E-01-2.262892168E-01+
*       3.3261586173E-01               0
GRID*                606               04.3175688390E-018.7067577915E-01+
*       5.7970974871E-01               0
GRID*                607               0-8.748434327E-02-4.593458972E-03+
*       -8.569717308E-01               0
GRID*                608               0-1.232125888E-012.7088034490E-02+
*       -7.903574940E-01               0
GRID*                609               0-1.151004112E-01-7.119176247E-02+
*       -7.978148434E-01               0
GRID*                610               0-4.174562796E-01-6.950994347E-01+
*       -9.003827994E-01               0
GRID*                611               0-4.287945809E-01-8.046306129E-01+
*       -9.007779386E-01               0
GRID*                612               02.4228743219E-02-1.105479924E+00+
*       -6.708160419E-01               0
GRID*                613               01.5044688173E-01-1.110190744E+00+
*       -7.787195189E-01               0
GRID*                614               04.6826953937E-02-5.634191149E-01+
*       1.0992134830E-03               0
GRID*                615               0-4.908898418E-02-5.455041923E-01+
*       8.8534717603E-02               0
GRID*                616               0-1.336270219E-01-1.912559499E-01+
*       4.2963400200E-01               0
GRID*                617               0-5.710076579E-02-1.217823892E-01+
*       5.3030884301E-01               0
GRID*                618               0-8.431163048E-02-2.586011137E-01+
*       5.7100790747E-01               0
GRID*                619               0-3.268830244E-01-5.112188056E-01+
*       9.6697981211E-02               0
GRID*                620               0-3.326605217E-01-6.009076554E-01+
*       4.0274764438E-01               0
GRID*                621               0-1.870270150E-01-5.982072013E-01+
*       3.9318881648E-01               0
GRID*                622               0-6.180588674E-01-6.679692906E-01+
*       -9.013937984E-01               0
GRID*                623               0-5.172514104E-019.8721719553E-01+
*       9.1792677193E-01               0
GRID*                624               0-5.633500733E-018.9405462228E-01+
*       9.1374532101E-01               0
GRID*                625               0-2.561959438E-011.0668319774E-01+
*       3.9228732462E-01               0
GRID*                626               02.9575664961E-026.1742321770E-01+
*       1.3429168387E-01               0
GRID*                627               03.7677199617E-025.2561885208E-01+
*       2.3849630449E-01               0
GRID*                628               0-6.966245089E-016.9673447380E-01+
*       6.7866315446E-01               0
GRID*                629               0-6.199287118E-016.6067213911E-01+
*       5.9319138408E-01               0
GRID*                630               0-6.289973256E-017.8417226787E-01+
*       5.9380996355E-01               0
GRID*                631               0-5.810436716E-018.2622028165E-01+
*       6.8883576507E-01               0
GRID*                632               01.3861172058E-013.2481735921E-01+
*       5.2039218790E-01               0
GRID*                633               04.7585380213E-014.5193947130E-01+
*       5.1659274955E-01               0
GRID*                634               07.9663189575E-02-1.091942823E-02+
*       -1.308862158E+00               0
GRID*                635               02.4922936168E-02-7.204832311E-02+
*       -1.258603355E+00               0
GRID*                636               06.6688080530E-02-2.697024767E-03+
*       -1.234269048E+00               0
GRID*                637               0-6.287622057E-018.0634867350E-01+
*       9.2541627768E-01               0
GRID*                638               01.9194241436E-034.4919528171E-02+
*       -9.213127505E-01               0
GRID*                639               0-5.369456580E-025.6749426828E-02+
*       -1.022641209E+00               0
GRID*                640               0-7.240791160E-026.3854443493E-02+
*       -9.162041526E-01               0
GRID*                641               01.0553982960E+00-3.943956114E-01+
*       6.2686503507E-01               0
GRID*                642               0-4.960310888E-02-1.117558775E-02+
*       -9.612317504E-01               0
GRID*                643               01.9213888367E-016.4742781483E-01+
*       2.4485873917E-01               0
GRID*                644               03.9042907461E-01-9.750784506E-01+
*       -9.046072992E-01               0
GRID*                645               09.5304931780E-01-5.739638914E-01+
*       4.3702460413E-01               0
GRID*                646               0-5.125897758E-013.2643314781E-01+
*       2.1417908163E-01               0
GRID*                647               0-5.441062403E-012.1182121327E-01+
*       1.4932343787E-01               0
GRID*                648               0-1.482324277E-023.1150691074E-01+
*       3.3557306127E-01               0
GRID*                649               0-3.782452631E-01-1.031508926E+00+
*       -5.673996579E-01               0
GRID*                650               04.7636116654E-022.9387798412E-01+
*       4.8052889150E-01               0
GRID*                651               0-2.604530055E-02-6.507129867E-01+
*       -2.881808121E-01               0
GRID*                652               04.5405714043E-01-3.190188187E-01+
*       2.6796479289E-02               0
GRID*                653               04.7068165887E-01-2.478875139E-01+
*       -1.498404893E-01               0
GRID*                654               05.4631336402E-01-1.637444147E-01+
*       5.6858452542E-03               0
GRID*                655               03.9253846122E-01-3.693439574E-01+
*       -7.874346598E-02               0
GRID*                656               08.2207927775E-01-3.781010635E-01+
*       6.1424990176E-01               0
GRID*                657               09.5577032187E-01-2.851823317E-01+
*       5.7989690914E-01               0
GRID*                658               09.2215661606E-01-3.921881506E-01+
*       6.8321392616E-01               0
GRID*                659               09.1436120685E-01-3.729755834E-01+
*       5.0672814119E-01               0
GRID*                660               0-9.059770495E-026.5519726503E-01+
*       2.7785470731E-01               0
GRID*                661               08.7465109714E-026.5145851559E-01+
*       2.2893175257E-01               0
GRID*                662               08.5012401064E-026.4366535433E-01+
*       3.7931301935E-01               0
GRID*                663               05.0803558896E-01-2.850477762E-02+
*       8.1049305445E-01               0
GRID*                664               05.4800111404E-014.6761250773E-02+
*       9.2179965367E-01               0
GRID*                665               05.2206353271E-01-5.613267808E-02+
*       9.0580549078E-01               0
GRID*                666               06.2366175057E-01-9.102411732E-03+
*       9.0829706157E-01               0
GRID*                667               0-7.068605733E-018.3871384079E-01+
*       4.9651274631E-01               0
GRID*                668               0-7.696544030E-017.8675298684E-01+
*       5.8827458220E-01               0
GRID*                669               01.4339377130E-015.3431670121E-01+
*       1.7252812961E-01               0
GRID*                670               03.8215364773E-027.6180008193E-01+
*       -2.152947146E-01               0
GRID*                671               01.0181195506E-025.6658277886E-01+
*       -8.054033271E-02               0
GRID*                672               01.3544107474E-016.9154105905E-01+
*       -6.656092109E-02               0
GRID*                673               01.7826494974E-027.8103513908E-01+
*       -8.953332840E-02               0
GRID*                674               0-8.060740235E-02-1.847973706E-01+
*       3.1896086296E-01               0
GRID*                675               0-4.818442509E-01-3.916284133E-01+
*       -4.484539600E-02               0
GRID*                676               0-4.885194033E-01-2.556656811E-01+
*       3.6816578488E-02               0
GRID*                677               01.2995643524E-01-6.806011191E-01+
*       -4.149137850E-01               0
GRID*                678               01.7426229196E-01-5.714591197E-01+
*       -4.333155341E-01               0
GRID*                679               09.2269338542E-02-6.458394925E-01+
*       -1.767309196E-01               0
GRID*                680               0-7.550132657E-017.9400396147E-01+
*       8.9830812769E-01               0
GRID*                681               0-7.607884251E-017.9848001526E-01+
*       -5.913524429E-01               0
GRID*                682               01.6469683964E-01-6.163863841E-01+
*       -2.645145112E-01               0
GRID*                683               0-4.399810532E-01-6.382969495E-01+
*       1.8887615571E-01               0
GRID*                684               0-6.077874728E-01-7.540499240E-01+
*       2.0282355326E-01               0
GRID*                685               0-5.185120067E-01-7.046904968E-01+
*       2.9607837226E-01               0
GRID*                686               0-5.450002636E-01-5.633297555E-01+
*       2.0107857347E-01               0
GRID*                687               0-6.408009515E-01-2.096334229E-04+
*       -2.239461714E-01               0
GRID*                688               0-7.307795120E-013.9310740647E-01+
*       9.1471228858E-01               0
GRID*                689               0-4.461888016E-01-6.209476115E-01+
*       5.4928427360E-02               0
GRID*                690               0-6.064166440E-01-7.589298788E-01+
*       2.8868125151E-02               0
GRID*                691               0-4.984512037E-01-7.921002613E-01+
*       1.2862317878E-01               0
GRID*                692               0-6.258989515E-01-6.299928599E-01+
*       9.3476290873E-02               0
GRID*                693               05.4153110970E-01-4.884292267E-02+
*       -3.873635155E-02               0
GRID*                694               06.0653645368E-01-5.534744974E-02+
*       9.7299771967E-02               0
GRID*                695               05.5226747567E-015.6359119043E-02+
*       -9.074384052E-02               0
GRID*                696               06.6040234431E-01-3.278640576E-02+
*       -3.661107411E-02               0
GRID*                697               06.4571965252E-01-1.793197011E-02+
*       -2.043532257E-01               0
GRID*                698               06.4758542797E-01-1.558484433E-01+
*       -9.571080076E-02               0
GRID*                699               02.6803297724E-011.0687502040E+00+
*       3.3113753016E-03               0
GRID*                700               03.6772747473E-011.0329251775E+00+
*       4.8517879590E-02               0
GRID*                701               03.2278908844E-011.0458446325E+00+
*       -9.863376952E-02               0
GRID*                702               0-4.790260531E-01-3.576295130E-01+
*       5.9677704003E-01               0
GRID*                703               0-4.523864884E-01-2.916699654E-01+
*       7.1514898274E-01               0
GRID*                704               0-5.588363726E-01-3.568633290E-01+
*       7.4654636049E-01               0
GRID*                705               0-4.889883108E-01-4.660262964E-01+
*       6.9403038125E-01               0
GRID*                706               0-4.091300784E-01-5.822401940E-01+
*       5.5029877399E-01               0
GRID*                707               0-5.035222722E-01-5.796040214E-01+
*       6.8539785503E-01               0
GRID*                708               0-4.593965953E-01-7.015447495E-01+
*       5.2480374768E-01               0
GRID*                709               0-4.588476657E-01-6.984930425E-01+
*       7.0995795752E-01               0
GRID*                710               0-2.358272864E-011.0769380340E+00+
*       5.0731487072E-01               0
GRID*                711               0-1.550888532E-011.0986017117E+00+
*       3.8398911478E-01               0
GRID*                712               0-1.055335523E+003.1537561404E-01+
*       5.8117712198E-01               0
GRID*                713               0-7.599690397E-011.8298801507E-01+
*       9.0234759449E-01               0
GRID*                714               0-6.328516105E-012.4700452253E-01+
*       2.6330075822E-01               0
GRID*                715               0-5.621903593E-013.9171228743E-01+
*       3.5344631915E-01               0
GRID*                716               0-3.939246972E-013.0837656459E-01+
*       4.5604659791E-01               0
GRID*                717               0-3.649272536E-014.1008363047E-01+
*       3.3052234650E-01               0
GRID*                718               0-2.586951841E-019.6561084419E-01+
*       3.9332796481E-01               0
GRID*                719               0-2.876430991E-011.0816224569E+00+
*       2.7309388209E-01               0
GRID*                720               0-2.012984731E-011.7684193798E-01+
*       4.6626709749E-01               0
GRID*                721               0-1.475165524E-018.8324400763E-02+
*       3.2535379941E-01               0
GRID*                722               0-7.867272754E-021.0729227644E+00+
*       5.5423974073E-01               0
GRID*                723               0-1.547919885E-021.1214120823E+00+
*       4.7607388043E-01               0
GRID*                724               0-7.714181712E-021.0006036494E+00+
*       4.4622648164E-01               0
GRID*                725               0-3.884455363E-011.0272203510E+00+
*       4.8783393076E-01               0
GRID*                726               0-3.522688726E-011.0552707065E+00+
*       3.7790100152E-01               0
GRID*                727               03.1993769932E-01-5.416317777E-01+
*       -1.659074198E-01               0
GRID*                728               03.4128006387E-01-4.113879235E-01+
*       -1.851148871E-01               0
GRID*                729               02.8689282098E-01-5.459992419E-01+
*       -2.664995678E-01               0
GRID*                730               01.9700510086E-01-6.387093495E-01+
*       -9.683649073E-02               0
GRID*                731               04.0887484377E-01-5.183937775E-01+
*       -7.851866541E-02               0
GRID*                732               06.5242213823E-01-6.239200678E-02+
*       2.2653370084E-01               0
GRID*                733               06.6993221369E-016.0322189658E-02+
*       1.9594838530E-01               0
GRID*                734               05.4417037555E-018.5267669097E-02+
*       2.8365667475E-01               0
GRID*                735               05.3471551816E-01-1.075636675E-01+
*       3.1323106866E-01               0
GRID*                736               05.6574259890E-019.5351288453E-02+
*       1.0575024263E-01               0
GRID*                737               08.8296374849E-025.2624735309E-01+
*       -3.204224130E-01               0
GRID*                738               05.0329601369E-036.4990004967E-01+
*       -2.561186174E-01               0
GRID*                739               0-4.065140659E-021.0909000575E+00+
*       3.6156543458E-01               0
GRID*                740               0-6.196975798E-021.1009382613E+00+
*       2.5288808777E-01               0
GRID*                741               0-5.676010638E-01-3.599385739E-01+
*       -9.156561334E-01               0
GRID*                742               05.9775854030E-031.0992894202E+00+
*       6.9974875235E-01               0
GRID*                743               06.7052995159E-02-5.375547119E-01+
*       1.7383872752E-01               0
GRID*                744               07.7265435653E-01-7.376800248E-01+
*       9.2868819200E-01               0
GRID*                745               0-4.216890823E-02-5.061423490E-01+
*       -9.155127838E-01               0
GRID*                746               0-4.036921018E-02-6.017910732E-01+
*       -9.144028644E-01               0
GRID*                747               01.9744491108E-02-8.723320819E-02+
*       -4.015323735E-01               0
GRID*                748               0-7.408766141E-02-8.250849133E-02+
*       -3.534085673E-01               0
GRID*                749               0-8.255122934E-029.2559244059E-01+
*       3.1727698043E-01               0
GRID*                750               01.2905871227E-028.6764062339E-01+
*       4.5681552800E-01               0
GRID*                751               0-1.431658342E-019.0961742003E-01+
*       4.1786499813E-01               0
GRID*                752               09.0580268950E-014.8973764847E-01+
*       -9.346891694E-01               0
GRID*                753               0-2.814145670E-02-2.021266396E-01+
*       -3.916488953E-01               0
GRID*                754               0-6.797291095E-02-8.434705784E-02+
*       -4.582911610E-01               0
GRID*                755               0-2.231877412E-01-7.039775009E-01+
*       -9.041089341E-01               0
GRID*                756               0-6.423713105E-01-1.447744852E-01+
*       -2.593293867E-01               0
GRID*                757               0-6.930111637E-011.3886834137E-01+
*       -2.510288732E-01               0
GRID*                758               0-6.716154615E-01-1.186129368E-01+
*       -8.995816254E-02               0
GRID*                759               0-7.654453601E-016.5841779400E-03+
*       -1.892214236E-01               0
GRID*                760               0-6.570632418E-01-2.507322344E-02+
*       -3.457179335E-01               0
GRID*                761               0-7.720487951E-01-4.760331037E-02+
*       -3.042382315E-01               0
GRID*                762               0-7.582937049E-011.5731443406E-01+
*       -3.556336431E-01               0
GRID*                763               0-8.217192020E-021.9823031138E-01+
*       3.3038626043E-01               0
GRID*                764               0-6.994432435E-022.8317401915E-01+
*       4.8734732543E-01               0
GRID*                765               0-2.052443826E-011.0906268091E+00+
*       1.8353229667E-01               0
GRID*                766               0-1.751104064E-019.9435953846E-01+
*       3.2113215442E-01               0
GRID*                767               01.6675926757E-027.8408183460E-01+
*       1.9208172406E-01               0
GRID*                768               02.0636630879E-016.5246336842E-01+
*       8.1701820950E-02               0
GRID*                769               01.9167272150E-017.5216073715E-01+
*       1.6658782212E-01               0
GRID*                770               06.0399768521E-016.6377528802E-01+
*       4.9335926895E-01               0
GRID*                771               05.0035615658E-017.3803280324E-01+
*       5.9530041970E-01               0
GRID*                772               06.4275319285E-017.6910959113E-01+
*       5.8519853105E-01               0
GRID*                773               0-3.615478425E-02-9.004992745E-02+
*       4.1301280723E-01               0
GRID*                774               05.3147960154E-01-1.044028427E-01+
*       5.7211361868E-01               0
GRID*                775               05.1549454053E-01-2.106201644E-01+
*       5.9585301821E-01               0
GRID*                776               05.8967775255E-01-9.855855061E-02+
*       7.0619882585E-01               0
GRID*                777               04.6388668364E-01-1.222007381E-01+
*       6.8351850968E-01               0
GRID*                778               03.4194616466E-01-3.727008698E-01+
*       -3.352707622E-01               0
GRID*                779               04.4937106456E-01-2.090695678E-01+
*       -3.552916674E-01               0
GRID*                780               03.0896913232E-01-2.409520104E-01+
*       -3.632785127E-01               0
GRID*                781               02.1324651587E-01-1.549831633E-01+
*       -2.514441251E-01               0
GRID*                782               05.2631143454E-01-9.155801141E-02+
*       -1.553910712E-01               0
GRID*                783               02.0937335522E-02-8.722853824E-01+
*       -8.058955873E-01               0
GRID*                784               03.3601741922E-02-1.001652062E+00+
*       -7.969677359E-01               0
GRID*                785               0-6.986993642E-02-9.503687961E-01+
*       -9.244054614E-01               0
GRID*                786               01.4377772025E-02-8.850709862E-01+
*       -9.219038093E-01               0
GRID*                787               05.1182835647E-01-8.486802411E-02+
*       -3.069657307E-01               0
GRID*                788               0-3.873570064E-01-5.091169464E-01+
*       -2.637300960E-01               0
GRID*                789               0-3.431920397E-01-4.673012285E-01+
*       -3.663085354E-01               0
GRID*                790               0-2.744416925E-01-5.644367828E-01+
*       -2.681897295E-01               0
GRID*                791               08.8224791161E-01-6.304750026E-01+
*       -2.880009988E-01               0
GRID*                792               0-1.351413412E-01-7.868113216E-03+
*       -9.381590861E-01               0
GRID*                793               01.0433630086E-01-2.051252984E-01+
*       -9.358346952E-01               0
GRID*                794               05.1140691134E-02-1.259192501E-01+
*       -9.266973729E-01               0
GRID*                795               09.1193019850E-02-9.884588715E-02+
*       -9.419956462E-01               0
GRID*                796               04.1901259945E-015.5644380043E-01+
*       -1.364804090E-01               0
GRID*                797               01.3484347046E-016.6086623526E-01+
*       -2.733397595E-01               0
GRID*                798               0-6.937014023E-018.5012904223E-01+
*       -8.700728945E-02               0
GRID*                799               0-6.610385207E-018.8835405710E-01+
*       8.2522548671E-02               0
GRID*                800               0-7.647416698E-017.9353250122E-01+
*       -4.044222763E-03               0
GRID*                801               0-6.304298245E-017.6656343654E-01+
*       -8.858528272E-03               0
GRID*                802               0-2.216171344E-015.7851908601E-01+
*       -3.741284289E-01               0
GRID*                803               0-1.204093118E-014.7939385285E-01+
*       -5.156406741E-01               0
GRID*                804               0-2.537746730E-014.4783990029E-01+
*       -4.021687013E-01               0
GRID*                805               0-2.682710856E-013.9169982957E-01+
*       -5.199822416E-01               0
GRID*                806               0-2.304885169E-015.7751893907E-01+
*       -5.185246142E-01               0
GRID*                807               0-5.072847291E-01-3.677603281E-01+
*       1.3781956851E-01               0
GRID*                808               0-4.891941620E-01-2.372480513E-01+
*       1.7731550133E-01               0
GRID*                809               0-7.500175468E-016.6600307074E-01+
*       -1.540633894E-03               0
GRID*                810               0-6.644567969E-017.2664721434E-01+
*       1.3655183830E-01               0
GRID*                811               0-1.518888427E-017.9008633807E-01+
*       7.8303593276E-01               0
GRID*                812               0-1.824616375E-017.9233211667E-01+
*       9.2039654317E-01               0
GRID*                813               0-5.550182385E-028.1883142378E-01+
*       9.0241766591E-01               0
GRID*                814               0-6.245059159E-017.5915976442E-01+
*       -1.877498069E-01               0
GRID*                815               0-6.943659311E-017.1370170747E-01+
*       -1.032824179E-01               0
GRID*                816               0-1.002630276E-012.0129791192E-01+
*       -7.638726037E-01               0
GRID*                817               0-1.403036528E-011.0840960264E-01+
*       -7.934624781E-01               0
GRID*                818               0-2.128716709E-012.0352995508E-01+
*       -8.174451464E-01               0
GRID*                819               0-1.089599136E-012.1730120280E-01+
*       -8.872046335E-01               0
GRID*                820               0-2.548872815E-01-1.270959595E-01+
*       3.5487479398E-01               0
GRID*                821               0-2.477371461E-01-7.130372234E-03+
*       3.5323093307E-01               0
GRID*                822               0-6.083174021E-019.1012686879E-01+
*       -6.719744714E-02               0
GRID*                823               0-3.595252031E-01-5.161837254E-02+
*       4.0640396375E-01               0
GRID*                824               0-3.352253911E-015.9971370200E-02+
*       4.2234284655E-01               0
GRID*                825               0-4.736536845E-016.2409375950E-02+
*       4.1645743137E-01               0
GRID*                826               0-3.146507427E-01-9.984154796E-01+
*       9.2751174656E-01               0
GRID*                827               06.5956328120E-019.9397369249E-02+
*       1.2969867091E-02               0
GRID*                828               06.5054659555E-01-1.818100307E-01+
*       8.1414449771E-02               0
GRID*                829               07.7784130695E-01-3.504834294E-02+
*       5.5412534552E-02               0
GRID*                830               0-3.354211669E-01-1.678984486E-01+
*       3.9512649725E-01               0
GRID*                831               0-2.101786698E-013.4935843193E-02+
*       -9.331061428E-01               0
GRID*                832               0-6.235560085E-014.1494711275E-01+
*       1.5418814076E-01               0
GRID*                833               0-6.764033717E-013.5588115195E-01+
*       3.0079400643E-01               0
GRID*                834               0-6.407021564E-012.4827661199E-01+
*       7.0715059842E-02               0
GRID*                835               0-4.811289010E-014.3461449957E-01+
*       2.7859585146E-01               0
GRID*                836               0-5.204699875E-013.5002082320E-01+
*       4.0434871279E-02               0
GRID*                837               0-5.014997957E-014.5338813861E-01+
*       9.6357738708E-02               0
GRID*                838               0-5.304320668E-01-1.217956672E-01+
*       3.1708304637E-01               0
GRID*                839               0-4.696413499E-01-5.829088883E-02+
*       4.1950003681E-01               0
GRID*                840               01.6240640823E-01-2.645477832E-01+
*       3.3806425438E-01               0
GRID*                841               0-4.727542636E-01-4.255005969E-01+
*       -3.591549702E-01               0
GRID*                842               0-5.287831152E-01-5.596699315E-01+
*       -3.106924224E-01               0
GRID*                843               0-3.747977702E-01-6.221793968E-01+
*       -4.277646995E-01               0
GRID*                844               0-2.948911401E-01-5.323315524E-01+
*       -4.565141741E-01               0
GRID*                845               0-4.633137462E-01-4.555938724E-01+
*       -4.872132477E-01               0
GRID*                846               0-5.105976821E-018.7396918544E-01+
*       2.0038073857E-03               0
GRID*                847               04.7449551074E-013.8056846068E-01+
*       -4.553044796E-01               0
GRID*                848               04.9237297163E-014.0251721299E-01+
*       -3.235697526E-01               0
GRID*                849               06.1283355187E-013.5738465942E-01+
*       -4.177219266E-01               0
GRID*                850               05.0945221281E-012.3064485041E-01+
*       -2.257298417E-01               0
GRID*                851               04.1416642124E-012.3894954920E-01+
*       -4.549851957E-01               0
GRID*                852               01.0734569713E-01-5.422487539E-01+
*       3.4586526989E-01               0
GRID*                853               0-2.000689385E-02-4.952495761E-01+
*       4.6794541689E-01               0
GRID*                854               01.1718626951E-01-4.794423531E-01+
*       4.3717115046E-01               0
GRID*                855               0-4.132909423E-01-4.762903363E-01+
*       -9.049817204E-01               0
GRID*                856               06.2508797725E-021.0561143287E+00+
*       2.3692707611E-01               0
GRID*                857               02.1685481787E-011.0905009623E+00+
*       2.3113873240E-01               0
GRID*                858               01.0865690360E-011.0597291644E+00+
*       3.5072260865E-01               0
GRID*                859               0-8.110458880E-037.2978148911E-01+
*       9.1224658550E-01               0
GRID*                860               0-5.497277848E-017.0235600166E-01+
*       1.1701075714E-01               0
GRID*                861               0-1.448938866E-02-5.423962816E-01+
*       3.0080889627E-01               0
GRID*                862               03.6043123735E-04-3.484879920E-01+
*       5.1777209287E-01               0
GRID*                863               03.8224567880E-02-2.631620242E-01+
*       3.8350631183E-01               0
GRID*                864               01.6084960316E-026.7780175656E-01+
*       3.6653174008E-02               0
GRID*                865               01.4440434866E-017.5755733793E-01+
*       3.2490531142E-01               0
GRID*                866               01.4020906674E-027.5610704943E-01+
*       3.3444276374E-01               0
GRID*                867               05.0643797405E-016.3140564899E-01+
*       6.1835658813E-01               0
GRID*                868               03.6285911100E-015.9899307851E-01+
*       5.9459616625E-01               0
GRID*                869               03.9828169351E-015.9350826815E-01+
*       7.0474664113E-01               0
GRID*                870               03.6307020051E-017.0345887083E-01+
*       6.6000905367E-01               0
GRID*                871               0-3.924010990E-013.9669703195E-01+
*       1.6748360818E-01               0
GRID*                872               0-4.370010236E-015.5982256398E-01+
*       2.4057201668E-01               0
GRID*                873               0-6.610155589E-01-8.804454048E-01+
*       -5.959750465E-01               0
GRID*                874               05.7282095617E-013.6848793426E-01+
*       6.1871223313E-01               0
GRID*                875               04.3717930853E-014.2486032453E-01+
*       6.2146052618E-01               0
GRID*                876               05.8300906163E-013.2724547535E-01+
*       5.1460087899E-01               0
GRID*                877               0-6.109683079E-01-3.125236861E-01+
*       -4.632692118E-01               0
GRID*                878               0-7.089343541E-01-3.403833869E-01+
*       -5.653987553E-01               0
GRID*                879               0-5.597334181E-01-2.895307476E-01+
*       -6.028661417E-01               0
GRID*                880               0-6.319259256E-01-4.831128921E-01+
*       -5.737972065E-01               0
GRID*                881               0-7.334955158E-01-1.994610244E-01+
*       -4.648851944E-01               0
GRID*                882               0-6.194699493E-01-1.398877977E-01+
*       -4.122677676E-01               0
GRID*                883               0-5.702007354E-01-1.410661603E-01+
*       -5.076469984E-01               0
GRID*                884               0-7.339179744E-01-2.580875081E-01+
*       -1.300631298E-01               0
GRID*                885               0-6.243104741E-01-2.293390476E-01+
*       -1.699810407E-01               0
GRID*                886               0-6.297899685E-01-1.996321310E-01+
*       2.0520921675E-02               0
GRID*                887               0-8.514349263E-01-2.967784831E-01+
*       -8.775900000E-02               0
GRID*                888               0-7.395094979E-01-2.473199575E-01+
*       1.6573402395E-03               0
GRID*                889               0-8.867167659E-01-1.894057341E-01+
*       -9.141065679E-02               0
GRID*                890               0-5.796923099E-01-3.259288802E-01+
*       -9.377254061E-02               0
GRID*                891               0-7.411919353E-02-7.579935091E-01+
*       -9.130818921E-01               0
GRID*                892               0-1.198619285E-01-6.483894751E-01+
*       -9.015076546E-01               0
GRID*                893               0-7.799143150E-01-1.654149442E-01+
*       -1.829957936E-01               0
GRID*                894               0-8.012806521E-01-2.671403502E-01+
*       -2.214885308E-01               0
GRID*                895               0-8.055360929E-01-3.939513263E-01+
*       -9.848589626E-02               0
GRID*                896               0-6.856472483E-01-3.651756388E-01+
*       -1.821943223E-01               0
GRID*                897               0-7.251587213E-01-3.564831147E-01+
*       -3.448904097E-03               0
GRID*                898               0-7.614154674E-01-8.133156985E-01+
*       -6.361197679E-01               0
GRID*                899               09.4989748661E-031.9625608779E-01+
*       4.1258662755E-01               0
GRID*                900               0-1.491166497E-01-3.959526735E-03+
*       -3.820323578E-01               0
GRID*                901               03.2123132045E-016.6408258211E-01+
*       8.9949943619E-01               0
GRID*                902               02.2470565556E-016.7013193042E-01+
*       9.1173457234E-01               0
GRID*                903               04.7917822789E-014.5026638959E-01+
*       7.2778260925E-01               0
GRID*                904               06.0436326033E-015.5983271395E-01+
*       7.2643023673E-01               0
GRID*                905               05.8772811565E-014.0791617726E-01+
*       8.1717732954E-01               0
GRID*                906               06.6437161281E-014.6014332209E-01+
*       6.7959529019E-01               0
GRID*                907               03.1407778708E-023.5703805385E-02+
*       -3.685251288E-01               0
GRID*                908               0-5.932870882E-021.5554617375E-01+
*       -3.875908107E-01               0
GRID*                909               02.1458234757E-011.0078094348E+00+
*       9.0630346657E-01               0
GRID*                910               0-7.143937620E-01-7.134732906E-01+
*       -8.995712500E-01               0
GRID*                911               09.7928150406E-01-2.567792838E-01+
*       -9.281161678E-01               0
GRID*                912               01.1233142193E+00-1.842226731E-01+
*       -6.156918106E-01               0
GRID*                913               02.0559510019E-02-6.778164940E-01+
*       8.8671849069E-02               0
GRID*                914               0-6.911348091E-02-6.589053090E-01+
*       -2.011011649E-03               0
GRID*                915               03.6519224208E-011.8395912838E-02+
*       4.3998033333E-01               0
GRID*                916               05.2022907701E-011.8971776671E-01+
*       -7.614642964E-02               0
GRID*                917               01.1018307661E-01-6.035373729E-01+
*       9.0937920918E-01               0
GRID*                918               0-6.653648207E-01-9.028810848E-01+
*       -7.658104163E-01               0
GRID*                919               04.5313310130E-01-3.078848959E-01+
*       2.1032239308E-01               0
GRID*                920               02.9160265474E-017.8018264186E-01+
*       6.6161380756E-01               0
GRID*                921               02.4008860046E-017.3972404672E-01+
*       7.9985508493E-01               0
GRID*                922               0-4.576466262E-01-3.257958828E-01+
*       3.7695263854E-01               0
GRID*                923               0-3.718186039E-01-2.742041967E-01+
*       4.4633408173E-01               0
GRID*                924               05.0265600885E-01-3.875512146E-01+
*       -1.760075668E-01               0
GRID*                925               04.1649725651E-01-4.721750506E-01+
*       -2.742856148E-01               0
GRID*                926               05.2888910857E-01-3.607751753E-01+
*       -3.746518691E-01               0
GRID*                927               05.8426567749E-01-2.671286927E-01+
*       -2.562322085E-01               0
GRID*                928               0-4.351879252E-01-9.787847493E-01+
*       8.8475440862E-01               0
GRID*                929               04.0924070644E-014.5720740722E-01+
*       9.4089159355E-01               0
GRID*                930               05.3063030986E-015.7880850286E-01+
*       9.2367423123E-01               0
GRID*                931               05.1711554194E-014.2343872216E-01+
*       9.1421447643E-01               0
GRID*                932               07.1928091418E-016.9698872327E-01+
*       5.0567471720E-01               0
GRID*                933               07.1523016386E-018.3357834556E-01+
*       4.9138548929E-01               0
GRID*                934               03.3678751102E-01-1.027323526E+00+
*       5.6031352563E-01               0
GRID*                935               02.8262130010E-011.0758893597E+00+
*       6.0241861280E-01               0
GRID*                936               0-1.586909312E-01-1.324893118E-01+
*       2.9710978261E-01               0
GRID*                937               07.2261041753E-025.2706081366E-01+
*       4.4505286881E-01               0
GRID*                938               03.8663884901E-011.0279925392E+00+
*       7.7783442611E-01               0
GRID*                939               03.5364985112E-015.5302661219E-01+
*       9.2221636245E-01               0
GRID*                940               03.1103331387E-014.8396058875E-01+
*       9.0882937661E-01               0
GRID*                941               03.4125974141E-015.4479273164E-01+
*       8.0695581811E-01               0
GRID*                942               04.4570439611E-015.1371874627E-01+
*       8.3357534521E-01               0
GRID*                943               05.4438772502E-013.3839432317E-01+
*       9.1274967003E-01               0
GRID*                944               04.3011176785E-013.6079136837E-01+
*       9.1219667036E-01               0
GRID*                945               04.7195342183E-012.6717872103E-01+
*       9.0417275419E-01               0
GRID*                946               04.8935441353E-015.7405363562E-01+
*       7.2842329193E-01               0
GRID*                947               05.8108374695E-016.3057636939E-01+
*       8.0531558022E-01               0
GRID*                948               05.3678854447E-014.9363266024E-01+
*       8.3417077340E-01               0
GRID*                949               06.3270306773E-015.1360759505E-01+
*       9.1357149859E-01               0
GRID*                950               08.3246669239E-017.3373022485E-01+
*       8.9650118448E-01               0
GRID*                951               0-1.055389649E+00-3.496903760E-01+
*       -9.073377525E-01               0
GRID*                952               0-1.018409956E+00-2.515142059E-01+
*       -8.998760531E-01               0
GRID*                953               02.6003651508E-01-1.086350398E+00+
*       -3.999663756E-01               0
GRID*                954               0-6.375697340E-012.0951247491E-01+
*       -4.031396673E-01               0
GRID*                955               0-6.564219828E-011.1278340619E-01+
*       -5.227335927E-01               0
GRID*                956               0-7.540000934E-016.2875269527E-02+
*       -4.380292590E-01               0
GRID*                957               0-5.094098100E-018.0940248598E-03+
*       -4.947896999E-01               0
GRID*                958               0-1.828009189E-01-6.316253537E-01+
*       2.6191902199E-01               0
GRID*                959               04.2361855884E-013.6378296942E-01+
*       8.1653998073E-01               0
GRID*                960               04.7451662740E-01-4.528650540E-01+
*       2.1339566504E-02               0
GRID*                961               05.8027995573E-01-3.028090026E-01+
*       -7.459322198E-02               0
GRID*                962               03.1225732543E-014.3055902226E-01+
*       8.1141998547E-01               0
GRID*                963               05.0255501891E-011.6398571955E-01+
*       -3.887706027E-01               0
GRID*                964               05.9078946366E-012.1417571607E-01+
*       -3.046356717E-01               0
GRID*                965               05.2745657858E-018.6290621537E-02+
*       -2.153522702E-01               0
GRID*                966               0-3.273427590E-01-7.715909874E-01+
*       9.2019743963E-01               0
GRID*                967               02.7147817799E-015.5468691690E-01+
*       9.3029562599E-01               0
GRID*                968               08.5866686205E-017.0163151326E-01+
*       4.6241228364E-01               0
GRID*                969               07.8389394974E-017.8327888493E-01+
*       5.7648210896E-01               0
GRID*                970               07.8523963123E-016.8001616952E-01+
*       -9.067235098E-01               0
GRID*                971               0-9.132560952E-015.2836217120E-01+
*       7.7373390094E-01               0
GRID*                972               0-6.310754521E-012.8233717497E-01+
*       -2.667379955E-01               0
GRID*                973               0-6.274696845E-015.4341661574E-01+
*       7.4248162649E-01               0
GRID*                974               08.1686595572E-013.5165822766E-01+
*       6.6612132939E-01               0
GRID*                975               08.1725317234E-013.9511002192E-01+
*       7.9721835799E-01               0
GRID*                976               06.9378152057E-013.2830986135E-01+
*       6.7853375820E-01               0
GRID*                977               07.6596422356E-012.1092296019E-01+
*       8.0776185099E-01               0
GRID*                978               0-1.054611729E-022.5416237822E-01+
*       -2.967455653E-01               0
GRID*                979               02.5383417908E-011.0808866250E+00+
*       -8.652079512E-01               0
GRID*                980               0-6.870220379E-012.4750983923E-01+
*       9.2240426389E-01               0
GRID*                981               0-5.177324207E-014.0244219707E-01+
*       5.1131471444E-01               0
GRID*                982               0-3.236805668E-013.9955306813E-01+
*       5.1559938452E-01               0
GRID*                983               0-6.587242603E-014.2403592885E-01+
*       -1.631161602E-02               0
GRID*                984               0-5.480407401E-013.8090819491E-01+
*       -1.092382606E-01               0
GRID*                985               0-5.817800580E-015.4201777412E-01+
*       -6.196077704E-03               0
GRID*                986               0-4.610940166E-01-5.031189274E-01+
*       -8.981803936E-02               0
GRID*                987               0-3.575213199E-01-5.536118975E-01+
*       -3.561937685E-02               0
GRID*                988               03.6498128888E-011.7542277545E-01+
*       5.4173469592E-01               0
GRID*                989               01.0509549411E+00-3.175746269E-01+
*       4.8783781007E-01               0
GRID*                990               08.6441040755E-012.1678794725E-01+
*       5.8741071740E-01               0
GRID*                991               09.9625941056E-012.1046085372E-01+
*       5.0114256874E-01               0
GRID*                992               09.0478503985E-012.9816284657E-01+
*       4.9527773199E-01               0
GRID*                993               09.4991504289E-012.8958633099E-01+
*       5.9670150176E-01               0
GRID*                994               07.2525172824E-012.2031725129E-01+
*       6.6380450987E-01               0
GRID*                995               06.5860740727E-012.7404938004E-01+
*       7.9103554303E-01               0
GRID*                996               0-9.190097290E-021.1115165542E-02+
*       5.3785051458E-01               0
GRID*                997               04.4893915461E-014.8741943076E-01+
*       -2.339120154E-01               0
GRID*                998               07.4164097225E-011.3225266863E-01+
*       7.4482480405E-01               0
GRID*                999               08.3538506408E-012.1262742955E-01+
*       7.0445634269E-01               0
GRID*               1000               07.0941362675E-011.2736838474E-01+
*       6.0628204841E-01               0
GRID*               1001               08.3126490900E-018.5594741068E-02+
*       6.7536894397E-01               0
GRID*               1002               05.7981196750E-019.5915372308E-01+
*       -2.454607776E-01               0
GRID*               1003               03.2815851182E-017.0337929281E-01+
*       -1.701666948E-02               0
GRID*               1004               04.7548051728E-016.6093911555E-01+
*       -5.932637529E-02               0
GRID*               1005               01.0205794345E+004.0569342566E-01+
*       5.8545757097E-01               0
GRID*               1006               01.0532670018E+003.0413998402E-01+
*       5.0484875871E-01               0
GRID*               1007               04.0717621130E-017.6730428310E-01+
*       -2.056111538E-01               0
GRID*               1008               0-9.277425667E-015.2630696395E-01+
*       -9.398584542E-01               0
GRID*               1009               02.8564259362E-011.0848983809E+00+
*       -3.922545506E-01               0
GRID*               1010               0-6.343535451E-01-4.590150416E-01+
*       1.7363513802E-01               0
GRID*               1011               0-5.449720610E-01-3.978260744E-01+
*       2.9754887877E-01               0
GRID*               1012               0-4.881450637E-01-4.997437200E-01+
*       9.1645923754E-02               0
GRID*               1013               08.3104287847E-012.0766214367E-01+
*       4.4743262162E-01               0
GRID*               1014               08.0268864065E-011.1249726476E-01+
*       5.1732302719E-01               0
GRID*               1015               06.9811387491E-011.0149334020E-01+
*       4.2276313502E-01               0
GRID*               1016               09.0139796147E-019.0506186607E-02+
*       4.1199073690E-01               0
GRID*               1017               0-5.953753537E-01-2.570391614E-01+
*       2.5402251670E-01               0
GRID*               1018               0-6.729239600E-01-3.615634438E-01+
*       2.8954858202E-01               0
GRID*               1019               0-6.045805443E-01-3.120652632E-01+
*       9.5510237939E-02               0
GRID*               1020               07.1613219956E-014.3623018419E-01+
*       4.6693461482E-01               0
GRID*               1021               09.0625431095E-013.9046174707E-01+
*       4.1915673188E-01               0
GRID*               1022               08.3650042309E-013.0934745756E-01+
*       3.9836191295E-01               0
GRID*               1023               07.5418079839E-014.4072952558E-01+
*       3.5486750959E-01               0
GRID*               1024               04.3506362908E-02-1.486551974E-01+
*       4.2040443513E-01               0
GRID*               1025               01.6939501570E-011.8008415849E-02+
*       -3.555516829E-01               0
GRID*               1026               01.1924528755E-01-1.036937491E-01+
*       -3.344053710E-01               0
GRID*               1027               08.4934070141E-021.4127460718E-01+
*       -3.999881282E-01               0
GRID*               1028               03.3290022138E-013.7156199303E-01+
*       -8.998261540E-01               0
GRID*               1029               09.8775112473E-014.2244445174E-02+
*       7.0597859836E-01               0
GRID*               1030               09.7224306329E-018.7831398540E-02+
*       6.0027606902E-01               0
GRID*               1031               09.9097378405E-011.8698572757E-01+
*       6.8318863167E-01               0
GRID*               1032               0-1.102510502E+001.4894349502E-01+
*       7.7430354547E-01               0
GRID*               1033               02.3085338304E-011.0853859751E+00+
*       8.2494025849E-02               0
GRID*               1034               06.5945279775E-01-5.079860623E-03+
*       6.0959472290E-01               0
GRID*               1035               07.5781051694E-01-7.958273859E-03+
*       6.8524663799E-01               0
GRID*               1036               05.6117534122E-015.5488971518E-01+
*       2.2692718292E-01               0
GRID*               1037               04.6039395843E-018.7864881375E-01+
*       1.5362419619E-01               0
GRID*               1038               03.9849979019E-011.0265149094E+00+
*       2.0941662784E-01               0
GRID*               1039               05.0446942528E-011.0020068955E+00+
*       2.8069453445E-01               0
GRID*               1040               04.7129466597E-019.9185195661E-01+
*       9.5991055092E-02               0
GRID*               1041               03.4748574828E-016.5520611477E-01+
*       3.9622582767E-01               0
GRID*               1042               0-4.559054924E-01-1.861112391E-01+
*       -4.377249707E-01               0
GRID*               1043               0-5.000926240E-01-2.967256977E-01+
*       -3.653339488E-01               0
GRID*               1044               0-4.464794472E-01-5.206544067E-02+
*       -4.207794321E-01               0
GRID*               1045               0-1.098870875E-01-1.573697958E-01+
*       -5.122411919E-01               0
GRID*               1046               0-5.027337022E-01-4.260975025E-01+
*       -2.471820752E-01               0
GRID*               1047               0-6.186585913E-01-4.794267779E-01+
*       -1.766088523E-01               0
GRID*               1048               0-6.347618030E-01-4.635732623E-01+
*       -4.755952708E-03               0
GRID*               1049               03.0563415734E-019.5876200090E-01+
*       8.9402475493E-01               0
GRID*               1050               04.2865722688E-016.1368035375E-01+
*       9.1693804458E-01               0
GRID*               1051               04.3283176739E-017.7027244531E-01+
*       2.7081495370E-02               0
GRID*               1052               04.8054489099E-018.4023558432E-01+
*       -7.276163663E-02               0
GRID*               1053               05.7432721153E-019.4816527439E-01+
*       4.4166687887E-02               0
GRID*               1054               05.4874960237E-017.4528818731E-01+
*       2.6513713326E-02               0
GRID*               1055               0-4.709277451E-01-2.136188812E-01+
*       3.6229743841E-01               0
GRID*               1056               0-2.629022120E-016.8556684650E-01+
*       -2.006500405E-01               0
GRID*               1057               0-8.116321828E-017.8096001697E-01+
*       -9.007242454E-01               0
GRID*               1058               03.8568555563E-019.9819907548E-01+
*       6.6797057404E-01               0
GRID*               1059               0-5.888827945E-022.8487844959E-02+
*       -1.364736619E+00               0
GRID*               1060               04.5753895610E-017.4574908318E-01+
*       1.7099596826E-01               0
GRID*               1061               06.2979264165E-017.7841053679E-01+
*       1.3638700216E-01               0
GRID*               1062               02.4945941174E-016.0769449022E-01+
*       3.7040802121E-01               0
GRID*               1063               03.7922317189E-01-3.107613811E-01+
*       3.1827436323E-01               0
GRID*               1064               05.9264215418E-019.4184079427E-01+
*       1.7891810929E-01               0
GRID*               1065               03.1854022052E-018.2057813375E-01+
*       -1.066841097E-01               0
GRID*               1066               02.1027130505E-018.6594074338E-01+
*       -9.887071023E-02               0
GRID*               1067               03.1382273112E-018.2087764577E-01+
*       5.8730036840E-02               0
GRID*               1068               03.4357376705E-019.2099607715E-01+
*       -3.854814974E-02               0
GRID*               1069               0-6.403805615E-01-8.775440672E-03+
*       -4.775725776E-01               0
GRID*               1070               06.5016026763E-013.8662826750E-01+
*       2.3852904737E-01               0
GRID*               1071               06.4681515303E-013.7249802188E-01+
*       4.1809324425E-01               0
GRID*               1072               07.0626141735E-012.8533011415E-01+
*       3.2762147694E-01               0
GRID*               1073               06.8928688174E-014.9548582592E-01+
*       2.5813279588E-01               0
GRID*               1074               06.1956015935E-015.5762444572E-01+
*       1.2458179057E-01               0
GRID*               1075               07.8571360288E-013.8927507544E-01+
*       2.5154205991E-01               0
GRID*               1076               07.4509228203E-012.8746936348E-01+
*       1.3323070311E-01               0
GRID*               1077               08.3145674199E-012.8224939402E-01+
*       2.0459663120E-01               0
GRID*               1078               04.0456863288E-019.0071090952E-01+
*       5.7631303766E-02               0
GRID*               1079               02.7133386348E-019.5484016056E-01+
*       8.3268198389E-02               0
GRID*               1080               03.2961874796E-019.3372103887E-01+
*       1.7943505527E-01               0
GRID*               1081               01.3788758021E-01-3.656716255E-01+
*       5.0096606180E-01               0
GRID*               1082               02.7837784665E-01-4.838205410E-01+
*       3.4040559286E-01               0
GRID*               1083               02.5836458747E-01-3.454149870E-01+
*       4.0088615493E-01               0
GRID*               1084               03.9202405102E-019.1373102881E-01+
*       2.7756784228E-01               0
GRID*               1085               0-4.252447288E-026.0263626122E-02+
*       -1.231793930E+00               0
GRID*               1086               0-8.767266270E-022.4650481771E-02+
*       -1.255242326E+00               0
GRID*               1087               0-5.370143967E-02-5.075707930E-03+
*       -1.268419791E+00               0
GRID*               1088               0-7.316618823E-017.1833169953E-01+
*       5.0460097139E-01               0
GRID*               1089               0-7.702249075E-017.9832366356E-01+
*       4.2948859402E-01               0
GRID*               1090               0-8.850521928E-01-3.787259523E-02+
*       -2.893692480E-01               0
GRID*               1091               0-8.953846797E-01-7.902942433E-02+
*       -3.818263701E-01               0
GRID*               1092               0-8.718217360E-01-1.771188618E-01+
*       -2.726248604E-01               0
GRID*               1093               0-9.850996125E-01-1.147103400E-01+
*       -2.991340304E-01               0
GRID*               1094               0-5.786079618E-012.7921987715E-01+
*       9.2816668338E-01               0
GRID*               1095               0-6.404252233E-013.5435450752E-01+
*       8.3891238768E-01               0
GRID*               1096               0-7.517816645E-01-1.637297848E-01+
*       -3.479514950E-01               0
GRID*               1097               0-8.678856176E-01-2.176245768E-01+
*       -3.891788361E-01               0
GRID*               1098               0-5.688578411E-01-3.298133526E-01+
*       -2.417546251E-01               0
GRID*               1099               0-5.698421038E-014.6844992791E-01+
*       9.3115803153E-01               0
GRID*               1100               0-7.554414649E-011.4753326857E-01+
*       1.2726466106E-01               0
GRID*               1101               0-4.805419755E-01-2.050677036E-02+
*       5.5639555391E-01               0
GRID*               1102               0-5.577442434E-01-9.778399996E-02+
*       6.1797552878E-01               0
GRID*               1103               05.9558280174E-024.0373547667E-03+
*       5.0617906288E-01               0
GRID*               1104               0-4.019024645E-034.9939810452E-02+
*       5.7153957096E-01               0
GRID*               1105               05.2168776534E-02-3.420112601E-02+
*       6.5519767526E-01               0
GRID*               1106               09.8420605605E-028.0926895247E-02+
*       6.0143024966E-01               0
GRID*               1107               01.7155463889E-01-2.929285073E-02+
*       5.4337115959E-01               0
GRID*               1108               06.6040538007E-02-1.271582412E-01+
*       5.5196382205E-01               0
GRID*               1109               08.3820000601E-024.7873512316E-01+
*       -6.009635677E-01               0
GRID*               1110               04.5415784070E-034.3187928013E-01+
*       -6.928568396E-01               0
GRID*               1111               0-7.869638215E-024.9837125779E-01+
*       -6.297517870E-01               0
GRID*               1112               08.9409296320E-025.6837833557E-01+
*       -7.080431866E-01               0
GRID*               1113               01.6963790086E-013.6050616145E-01+
*       -5.392259197E-01               0
GRID*               1114               0-8.553735272E-033.8220189868E-01+
*       -5.245467976E-01               0
GRID*               1115               01.3955917821E-013.9299732089E-01+
*       -6.646268658E-01               0
GRID*               1116               07.9721160528E-01-5.899685012E-01+
*       -9.207174320E-01               0
GRID*               1117               0-7.916096278E-01-4.167874128E-01+
*       -5.580833823E-01               0
GRID*               1118               0-7.488400678E-01-3.627349854E-01+
*       -4.225552259E-01               0
GRID*               1119               0-7.993040213E-01-4.649281000E-01+
*       -4.032644252E-01               0
GRID*               1120               0-7.383245493E-01-4.944390912E-01+
*       -5.180992615E-01               0
GRID*               1121               0-1.787361180E-011.9153499755E-01+
*       -4.489167807E-01               0
GRID*               1122               0-1.038457909E-015.2433064927E-01+
*       4.7960536343E-01               0
GRID*               1123               0-1.020446187E-016.4392836329E-01+
*       4.5126854862E-01               0
GRID*               1124               0-1.829033481E-015.7241535900E-01+
*       5.9766911113E-01               0
GRID*               1125               0-4.667181308E-035.8501212174E-01+
*       5.8499334589E-01               0
GRID*               1126               03.4763143840E-034.5696644010E-01+
*       5.2094364101E-01               0
GRID*               1127               0-7.558977928E-011.5158850628E-02+
*       5.3702623668E-03               0
GRID*               1128               05.9027836103E-011.1056945286E-01+
*       4.5927188840E-01               0
GRID*               1129               05.6859263359E-014.7808767782E-02+
*       5.4719382036E-01               0
GRID*               1130               05.7124238901E-011.3650251005E-01+
*       6.0569936667E-01               0
GRID*               1131               06.5639737119E-012.3882267871E-01+
*       4.9694741002E-01               0
GRID*               1132               04.0145015265E-01-5.274117107E-01+
*       1.2951759106E-01               0
GRID*               1133               04.8152869864E-01-6.238642387E-01+
*       2.3034667943E-02               0
GRID*               1134               04.0636842520E-01-6.544146589E-01+
*       -8.346044964E-02               0
GRID*               1135               02.1430771385E-01-6.280538457E-01+
*       9.3903721794E-02               0
GRID*               1136               04.0514350312E-01-6.618405201E-01+
*       1.0373801814E-01               0
GRID*               1137               0-2.936244218E-02-6.671838643E-01+
*       2.5082030715E-01               0
GRID*               1138               0-1.547200585E-01-6.673574302E-02+
*       4.2041671048E-01               0
GRID*               1139               01.0810227161E-011.0007810866E+00+
*       6.8277564028E-01               0
GRID*               1140               0-6.341327210E-031.0345828829E+00+
*       7.7864484522E-01               0
GRID*               1141               0-1.890530889E-01-8.301186680E-02+
*       -5.623142596E-01               0
GRID*               1142               0-2.473047284E-011.0150840289E-03+
*       -5.943781050E-01               0
GRID*               1143               07.3881157254E-01-1.504597140E-01+
*       -3.308007458E-01               0
GRID*               1144               07.0052571179E-01-3.208581329E-01+
*       -3.278316465E-01               0
GRID*               1145               06.3978315336E-01-1.255944397E-01+
*       -2.668567292E-01               0
GRID*               1146               05.8764773036E-01-1.971866152E-01+
*       -3.791195330E-01               0
GRID*               1147               05.6946955436E-01-3.448380797E-01+
*       -4.843149545E-01               0
GRID*               1148               07.8804977503E-01-3.187698418E-01+
*       -4.990786598E-01               0
GRID*               1149               06.5599186927E-01-4.349078489E-01+
*       -4.939417793E-01               0
GRID*               1150               07.7966968328E-01-4.838414996E-01+
*       -4.028264554E-01               0
GRID*               1151               08.0667670377E-01-3.397902217E-01+
*       -3.705021328E-01               0
GRID*               1152               06.2143284434E-01-4.326984916E-01+
*       -3.220700031E-01               0
GRID*               1153               08.8276037974E-01-4.188036058E-01+
*       -2.156783760E-01               0
GRID*               1154               06.8796206033E-01-3.393093832E-01+
*       -1.879556329E-01               0
GRID*               1155               07.3093088683E-01-4.856279530E-01+
*       -2.631344347E-01               0
GRID*               1156               07.6480639743E-01-2.293816519E-01+
*       -4.049811519E-01               0
GRID*               1157               06.5832923236E-01-2.162664742E-01+
*       -5.001204261E-01               0
GRID*               1158               01.6064005363E-01-1.397683949E-01+
*       5.2088466917E-01               0
GRID*               1159               03.7843461075E-01-1.511964625E-01+
*       3.8591807886E-01               0
GRID*               1160               01.9361138167E-018.6206173745E-02+
*       5.5723629188E-01               0
GRID*               1161               01.7913049306E-029.9473062997E-01+
*       5.5293326886E-01               0
GRID*               1162               08.2987014089E-021.1226739913E+00+
*       5.6731184556E-01               0
GRID*               1163               0-7.187679665E-014.7640041079E-01+
*       -9.281908538E-01               0
GRID*               1164               0-7.314212465E-013.6060164205E-01+
*       -9.196989354E-01               0
GRID*               1165               06.5442826819E-019.8610656026E-02+
*       -1.608860889E-01               0
GRID*               1166               07.7272021316E-011.1237076066E-01+
*       -6.914306604E-02               0
GRID*               1167               07.6257585671E-01-1.926502593E-01+
*       -7.749356352E-04               0
GRID*               1168               07.6597534052E-01-3.254413917E-02+
*       -1.291121665E-01               0
GRID*               1169               01.5922025355E-02-6.818539500E-01+
*       -8.345199505E-02               0
GRID*               1170               0-2.039200645E-01-6.388449838E-01+
*       -2.750861247E-01               0
GRID*               1171               0-1.080662500E+003.0764416045E-01+
*       -4.690023909E-01               0
GRID*               1172               0-1.035294322E+004.2866934065E-01+
*       -4.282258709E-01               0
GRID*               1173               0-1.036222886E+004.0721087925E-01+
*       -5.888975208E-01               0
GRID*               1174               02.1781851477E-021.6658670598E-01+
*       5.4362242503E-01               0
GRID*               1175               0-7.998245063E-021.3536666191E-01+
*       4.4555285255E-01               0
GRID*               1176               0-1.007272055E+00-4.697535365E-01+
*       -8.855126624E-01               0
GRID*               1177               0-1.643087215E-017.5524457651E-02+
*       4.6110818442E-01               0
GRID*               1178               0-7.858416307E-017.9748710399E-01+
*       1.6092188021E-01               0
GRID*               1179               0-5.629343671E-017.1218780846E-01+
*       9.0307546509E-01               0
GRID*               1180               0-5.206850734E-016.1811901867E-01+
*       9.0401525494E-01               0
GRID*               1181               04.5654841575E-01-1.379722142E-01+
*       -5.361566131E-01               0
GRID*               1182               03.5881975096E-01-1.762247405E-01+
*       -4.384524598E-01               0
GRID*               1183               04.1344598648E-01-1.668411516E-02+
*       -4.501208120E-01               0
GRID*               1184               05.6773198072E-01-1.155374585E-01+
*       -4.815006498E-01               0
GRID*               1185               0-9.784105229E-01-1.552451914E-01+
*       -4.405789033E-01               0
GRID*               1186               0-9.852823389E-01-2.738444499E-01+
*       -4.177922101E-01               0
GRID*               1187               05.8563723337E-01-1.972844840E-01+
*       -6.592425539E-01               0
GRID*               1188               04.9026878432E-01-1.187701794E-01+
*       -6.386831006E-01               0
GRID*               1189               04.5144141044E-01-2.495053902E-01+
*       -4.868903704E-01               0
GRID*               1190               05.2597638521E-01-2.369229676E-02+
*       -5.748354823E-01               0
GRID*               1191               03.9133686523E-015.1396272651E-02+
*       -6.125832677E-01               0
GRID*               1192               04.2562969905E-01-2.451928020E-01+
*       -6.452539155E-01               0
GRID*               1193               03.5391774073E-01-1.350011278E-01+
*       -5.773601586E-01               0
GRID*               1194               04.3033351299E-01-1.983152214E-02+
*       -6.892859810E-01               0
GRID*               1195               0-8.625112141E-019.8997024968E-02+
*       3.3506733340E-01               0
GRID*               1196               0-9.594543659E-011.8599719435E-01+
*       4.2851746164E-01               0
GRID*               1197               0-8.991579617E-012.5076457137E-01+
*       3.5102859144E-01               0
GRID*               1198               0-8.733196672E-012.6668335582E-02+
*       2.4977153156E-01               0
GRID*               1199               0-9.052611936E-011.9299923948E-01+
*       2.4184320753E-01               0
GRID*               1200               0-9.795960431E-016.5261103680E-02+
*       2.1529737008E-01               0
GRID*               1201               0-9.694099532E-016.6948671122E-02+
*       3.6403637551E-01               0
GRID*               1202               05.4469557417E-01-3.709692575E-01+
*       1.0306318808E-01               0
GRID*               1203               0-4.672989975E-01-3.148473307E-02+
*       -6.348364442E-01               0
GRID*               1204               0-4.231685387E-011.6516155802E-01+
*       -5.714134998E-01               0
GRID*               1205               01.1112156206E+009.6573249133E-02+
*       7.8202506892E-01               0
GRID*               1206               05.9703445999E-01-1.707938862E-02+
*       -3.922125638E-01               0
GRID*               1207               05.7840559146E-011.1852828407E-01+
*       -4.489942567E-01               0
GRID*               1208               06.1379046039E-017.3151239105E-02+
*       -3.202819354E-01               0
GRID*               1209               07.2376025351E-011.1786953762E-01+
*       -4.540628305E-01               0
GRID*               1210               06.5459426638E-012.2555440763E-02+
*       -5.146930465E-01               0
GRID*               1211               07.4195355601E-01-1.322150611E-02+
*       -3.463084615E-01               0
GRID*               1212               07.3610414652E-01-1.197305816E-01+
*       -4.496046602E-01               0
GRID*               1213               0-8.432743692E-01-1.069261357E-01+
*       -5.099318127E-01               0
GRID*               1214               0-7.718552834E-01-7.303302751E-02+
*       -6.508386459E-01               0
GRID*               1215               0-9.125773674E-019.9576683407E-03+
*       -6.037471190E-01               0
GRID*               1216               0-8.062927817E-015.0383005622E-02+
*       -5.840366745E-01               0
GRID*               1217               04.1952107167E-014.7661788767E-01+
*       -4.902872276E-01               0
GRID*               1218               01.1691024212E-014.7069108466E-01+
*       -4.656844136E-01               0
GRID*               1219               02.4176820837E-015.7102397770E-01+
*       -5.479793600E-01               0
GRID*               1220               03.3613463283E-015.0224792546E-01+
*       -6.433762628E-01               0
GRID*               1221               02.4085717310E-014.3343797584E-01+
*       -5.990743337E-01               0
GRID*               1222               0-2.997796006E-011.7789769950E-01+
*       6.5437665735E-01               0
GRID*               1223               0-3.792334384E-016.4504834134E-02+
*       6.5530496468E-01               0
GRID*               1224               0-3.892293178E-01-1.081259749E-02+
*       5.0612688756E-01               0
GRID*               1225               0-2.607596210E-018.9129499470E-02+
*       5.0891597330E-01               0
GRID*               1226               0-4.808361220E-01-3.272145917E-01+
*       -5.094594075E-01               0
GRID*               1227               0-3.985303504E-01-5.945252677E-01+
*       -5.937998375E-01               0
GRID*               1228               0-4.015089262E-01-6.635095212E-01+
*       -7.890468182E-01               0
GRID*               1229               0-4.466320872E-01-5.761912834E-01+
*       -7.471200863E-01               0
GRID*               1230               0-3.320050739E-01-5.904307559E-01+
*       -7.079728403E-01               0
GRID*               1231               0-5.909611345E-01-1.979641498E-01+
*       4.5175504926E-01               0
GRID*               1232               0-5.091876403E-01-2.752942854E-01+
*       5.0066402907E-01               0
GRID*               1233               0-4.928751820E-01-1.258794000E-01+
*       5.2238496776E-01               0
GRID*               1234               0-3.955307999E-01-1.717197249E-01+
*       5.2115594658E-01               0
GRID*               1235               0-9.348998737E-01-6.542411948E-02+
*       -1.881159337E-01               0
GRID*               1236               0-9.789334381E-01-2.134858990E-01+
*       -1.875449463E-01               0
GRID*               1237               0-7.131965801E-01-1.040815181E-01+
*       -5.384386340E-01               0
GRID*               1238               0-8.659299449E-01-1.840655833E-01+
*       -6.774264177E-01               0
GRID*               1239               06.4068877827E-01-4.489113100E-01+
*       1.9482456852E-02               0
GRID*               1240               0-7.059018552E-01-4.733407816E-01+
*       -2.850717231E-01               0
GRID*               1241               0-7.989517010E-01-3.735370581E-01+
*       -2.833766097E-01               0
GRID*               1242               0-8.531411181E-01-4.952650675E-01+
*       -2.845523171E-01               0
GRID*               1243               08.0988876014E-021.1795566296E-02+
*       -5.002008955E-01               0
GRID*               1244               01.3961439525E-01-8.877062414E-02+
*       -4.701291721E-01               0
GRID*               1245               0-4.562680404E-011.2367833986E-01+
*       7.8126599412E-01               0
GRID*               1246               0-5.269404582E-012.3182847463E-01+
*       8.1942028667E-01               0
GRID*               1247               0-4.474849401E-012.1149129225E-01+
*       9.1809280045E-01               0
GRID*               1248               0-4.229714556E-012.6430886997E-01+
*       8.3993650156E-01               0
GRID*               1249               0-3.892269817E-01-1.068056756E-01+
*       -5.314868046E-01               0
GRID*               1250               0-6.286741689E-01-3.968453812E-01+
*       5.9419935715E-01               0
GRID*               1251               0-6.105689500E-01-5.154848358E-01+
*       6.9697575663E-01               0
GRID*               1252               0-7.317244205E-01-4.713767522E-01+
*       7.0563881436E-01               0
GRID*               1253               0-6.906460712E-01-5.548841961E-01+
*       5.5118968454E-01               0
GRID*               1254               02.8890073843E-01-5.516685248E-01+
*       -4.798006703E-01               0
GRID*               1255               01.3414036504E-01-4.366115237E-01+
*       -5.394812649E-01               0
GRID*               1256               03.7555824565E-01-5.809472592E-01+
*       -3.695135282E-01               0
GRID*               1257               0-8.073326617E-011.0859341942E-01+
*       -1.004823385E-01               0
GRID*               1258               0-7.391544210E-011.4838266082E-01+
*       -2.508085891E-03               0
GRID*               1259               0-8.550908634E-017.5095310061E-02+
*       1.2273550196E-01               0
GRID*               1260               0-8.729115917E-01-5.126035880E-02+
*       -9.493648252E-02               0
GRID*               1261               0-9.513525704E-015.5365090610E-02+
*       -4.014238718E-02               0
GRID*               1262               0-8.921638540E-015.8376131569E-02+
*       -1.945156620E-01               0
GRID*               1263               0-9.628295465E-011.7885372586E-01+
*       -9.864982307E-02               0
GRID*               1264               0-4.616990884E-01-3.715377850E-01+
*       -6.204259271E-01               0
GRID*               1265               0-3.095891265E-01-4.105331565E-01+
*       -5.735581701E-01               0
GRID*               1266               0-3.751004849E-01-3.608600211E-01+
*       -7.013573892E-01               0
GRID*               1267               0-3.096732583E-01-2.427354799E-01+
*       -6.611762347E-01               0
GRID*               1268               0-2.012307471E-01-3.226547834E-01+
*       -6.404500205E-01               0
GRID*               1269               0-4.106159085E-01-2.204274376E-01+
*       -5.962675672E-01               0
GRID*               1270               0-4.857038614E-014.4182323052E-01+
*       -2.998748341E-01               0
GRID*               1271               0-6.228854339E-012.8637992347E-01+
*       -1.062658416E-01               0
GRID*               1272               01.7203355390E-01-1.956590964E-01+
*       -3.930238932E-01               0
GRID*               1273               02.5747095212E-01-1.028314740E-01+
*       -5.289872746E-01               0
GRID*               1274               02.8793678113E-01-2.400654347E-01+
*       -5.198793302E-01               0
GRID*               1275               02.5924745249E-01-1.171336330E-01+
*       -3.797795091E-01               0
GRID*               1276               02.4801042789E-01-1.371964152E-01+
*       -6.572548238E-01               0
GRID*               1277               03.0509533022E-01-2.236787636E-01+
*       -6.953083485E-01               0
GRID*               1278               0-3.090323469E-011.2609242865E-01+
*       7.7900268161E-01               0
GRID*               1279               0-3.462090354E-013.8109975252E-02+
*       8.2771302267E-01               0
GRID*               1280               0-2.844802100E-012.5482493111E-02+
*       7.3167646103E-01               0
GRID*               1281               03.8883034631E-01-3.569608980E-01+
*       -5.075462890E-01               0
GRID*               1282               01.0202118763E+00-4.795125429E-01+
*       2.3486223806E-01               0
GRID*               1283               09.5794447900E-01-5.659752005E-01+
*       3.2124123991E-01               0
GRID*               1284               02.6610985472E-011.2025194787E-02+
*       -4.195168528E-01               0
GRID*               1285               07.7240611786E-01-3.250432370E-02+
*       1.8610419961E-01               0
GRID*               1286               07.6038798733E-01-1.941835469E-01+
*       1.8198385620E-01               0
GRID*               1287               07.2286312966E-01-1.401308115E-01+
*       3.4125686004E-01               0
GRID*               1288               09.4257348200E-01-2.121327286E-02+
*       6.9657420184E-02               0
GRID*               1289               08.8375361310E-015.9802038313E-02+
*       1.3431254163E-01               0
GRID*               1290               08.8043407197E-01-1.465313848E-01+
*       2.2652303581E-01               0
GRID*               1291               0-2.652287595E-014.6721216875E-02+
*       8.4002966323E-01               0
GRID*               1292               0-3.328719586E-014.2195767432E-02+
*       9.4534066800E-01               0
GRID*               1293               0-2.752883062E-01-3.397572196E-02+
*       9.3466844660E-01               0
GRID*               1294               07.5363310047E-017.4267484409E-03+
*       3.2988176710E-01               0
GRID*               1295               07.9639054407E-011.2010372557E-01+
*       2.5012271779E-01               0
GRID*               1296               08.7228877388E-01-1.257465997E-02+
*       2.5970338613E-01               0
GRID*               1297               02.4838969750E-017.1571939957E-01+
*       3.1536328614E-01               0
GRID*               1298               02.2615734740E-017.3929832404E-01+
*       4.3730727283E-01               0
GRID*               1299               03.7625153627E-027.2484727091E-01+
*       4.6703282694E-01               0
GRID*               1300               0-6.308331887E-012.1736913637E-01+
*       8.0753885882E-01               0
GRID*               1301               0-7.370884769E-012.2795078846E-01+
*       8.1097926165E-01               0
GRID*               1302               0-6.577323328E-011.7503876963E-01+
*       9.0479951415E-01               0
GRID*               1303               0-1.306341971E-01-3.511485902E-01+
*       4.9683333878E-01               0
GRID*               1304               0-5.056685602E-017.9388675200E-01+
*       9.0322795536E-01               0
GRID*               1305               0-2.822264103E-01-3.867581927E-01+
*       5.8580289538E-01               0
GRID*               1306               0-2.594935507E-01-1.119251652E-01+
*       4.7498978501E-01               0
GRID*               1307               0-3.656858807E-01-1.515792133E-01+
*       6.9782320165E-01               0
GRID*               1308               0-3.793808603E-01-2.737254022E-01+
*       6.0706322443E-01               0
GRID*               1309               0-4.992252728E-01-1.996634841E-01+
*       6.1746018396E-01               0
GRID*               1310               0-2.658458654E-01-1.011336573E+00+
*       -9.150720979E-01               0
GRID*               1311               0-1.125473676E-019.4757910910E-02+
*       6.4044219393E-01               0
GRID*               1312               01.0365783587E-011.2630682454E-01+
*       4.2624695103E-01               0
GRID*               1313               02.2267813536E-027.3963609555E-02+
*       6.5562788150E-01               0
GRID*               1314               0-7.848483681E-021.3225055534E-01+
*       5.5915742712E-01               0
GRID*               1315               05.6126694652E-013.3391963690E-01+
*       -1.535684703E-01               0
GRID*               1316               06.3283388782E-012.3372902596E-01+
*       -1.550212190E-01               0
GRID*               1317               06.3438909267E-013.5797982735E-01+
*       -5.175204152E-02               0
GRID*               1318               05.1187993075E-014.5512022182E-01+
*       -1.296919379E-01               0
GRID*               1319               06.4583833483E-013.9022666815E-01+
*       -2.451786978E-01               0
GRID*               1320               07.2705402252E-012.8687320494E-01+
*       -7.862891105E-02               0
GRID*               1321               0-3.089287250E-015.8544173626E-01+
*       2.7526654255E-01               0
GRID*               1322               0-5.698311624E-015.4728280788E-01+
*       2.0187751909E-01               0
GRID*               1323               0-5.255416811E-015.2981556746E-01+
*       3.6237497308E-01               0
GRID*               1324               0-1.428076426E-01-3.615982951E-01+
*       -4.897946191E-01               0
GRID*               1325               01.3333101782E-01-7.250107926E-01+
*       5.9628855585E-01               0
GRID*               1326               07.4217504576E-02-6.276081533E-01+
*       5.1003874194E-01               0
GRID*               1327               0-1.549555962E-02-6.770166292E-01+
*       5.9015908703E-01               0
GRID*               1328               01.7554839508E-01-6.127653996E-01+
*       5.9864820385E-01               0
GRID*               1329               01.7215677490E-01-7.747910734E-01+
*       4.7930636842E-01               0
GRID*               1330               01.0621218128E-02-7.471901081E-01+
*       4.7462736605E-01               0
GRID*               1331               0-4.507691349E-01-1.030927231E+00+
*       -7.299991483E-01               0
GRID*               1332               0-2.548044068E-01-6.790471363E-01+
*       -4.275303370E-01               0
GRID*               1333               0-1.397243932E-01-7.392448443E-01+
*       -4.187593948E-01               0
GRID*               1334               0-1.096188947E-01-5.801567836E-01+
*       -4.849780500E-01               0
GRID*               1335               0-5.409939684E-011.0823970071E-01+
*       7.1178974333E-01               0
GRID*               1336               0-5.889503770E-018.3608477682E-02+
*       8.0608551837E-01               0
GRID*               1337               0-3.312669822E-012.9759025125E-03+
*       -6.438570191E-01               0
GRID*               1338               0-2.321838795E-01-7.490495820E-03+
*       -7.315798713E-01               0
GRID*               1339               0-3.467667718E-01-1.401188110E-02+
*       -7.531963455E-01               0
GRID*               1340               0-3.187448987E-017.1315531000E-02+
*       -7.665580481E-01               0
GRID*               1341               0-2.137467744E-016.9433085867E-02+
*       -7.113295623E-01               0
GRID*               1342               0-2.807372826E-01-9.681518736E-02+
*       -5.895034863E-01               0
GRID*               1343               0-2.069782165E-01-7.372125660E-02+
*       -6.720492912E-01               0
GRID*               1344               0-5.774395707E-01-9.505869193E-01+
*       -6.767803901E-01               0
GRID*               1345               0-1.145247586E-016.4705821105E-01+
*       -2.697894476E-01               0
GRID*               1346               06.2761023380E-01-3.367855728E-01+
*       -6.139701279E-01               0
GRID*               1347               06.8727542179E-01-2.378774980E-01+
*       -7.075416116E-01               0
GRID*               1348               07.4067529186E-01-2.575931596E-01+
*       -6.117053555E-01               0
GRID*               1349               07.6385251657E-01-4.310648448E-01+
*       -7.007955862E-01               0
GRID*               1350               0-5.494885965E-012.1135023329E-01+
*       -4.976577866E-01               0
GRID*               1351               0-5.044275130E-013.0351586047E-01+
*       -6.113318319E-01               0
GRID*               1352               01.3679917302E-015.7126391340E-01+
*       5.7713781311E-01               0
GRID*               1353               0-7.536114274E-012.5968291741E-01+
*       1.8858364906E-01               0
GRID*               1354               06.2920684849E-01-3.462027311E-04+
*       3.4319539756E-01               0
GRID*               1355               04.9144502576E-011.2116037958E-03+
*       4.4939172312E-01               0
GRID*               1356               07.3986976969E-01-4.480109211E-02+
*       4.3116721884E-01               0
GRID*               1357               05.8028562455E-01-6.711374717E-02+
*       4.6896241142E-01               0
GRID*               1358               0-4.287106145E-01-6.308817443E-01+
*       -1.895463688E-01               0
GRID*               1359               0-3.540956862E-01-7.352075241E-01+
*       -3.296980608E-01               0
GRID*               1360               08.6570996865E-01-2.361139212E-01+
*       -6.981182199E-01               0
GRID*               1361               07.7819720567E-01-2.096653719E-01+
*       -8.194296717E-01               0
GRID*               1362               07.7501282251E-01-3.040723676E-01+
*       -8.016580258E-01               0
GRID*               1363               0-2.184592797E-01-5.031033943E-01+
*       -5.561388586E-01               0
GRID*               1364               0-7.824702417E-01-1.343337141E-01+
*       5.8652271121E-03               0
GRID*               1365               0-7.153930313E-01-2.811688708E-01+
*       -3.225740757E-01               0
GRID*               1366               0-1.223697137E-01-1.049718288E+00+
*       -9.154392909E-01               0
GRID*               1367               0-4.666395129E-01-3.059665310E-01+
*       8.3314826524E-01               0
GRID*               1368               0-5.066610483E-01-2.082003315E-01+
*       8.2744090333E-01               0
GRID*               1369               0-6.359825505E-01-2.964135369E-01+
*       8.1804422452E-01               0
GRID*               1370               02.6842903136E-036.7205320842E-01+
*       -4.426493087E-01               0
GRID*               1371               01.3621457527E-016.3723429844E-01+
*       -4.386413773E-01               0
GRID*               1372               08.4252254833E-017.4243005099E-01+
*       7.0634734258E-01               0
GRID*               1373               05.6502958832E-012.7187050111E-01+
*       -4.992071931E-01               0
GRID*               1374               04.8622582129E-013.1909374120E-01+
*       -5.901728180E-01               0
GRID*               1375               07.1686345686E-014.4576931705E-01+
*       1.4800197740E-01               0
GRID*               1376               0-2.057611648E-016.1944525167E-01+
*       3.7712743693E-01               0
GRID*               1377               0-3.959980564E-016.7128819613E-01+
*       4.8528281827E-01               0
GRID*               1378               0-2.628056179E-017.4553356929E-01+
*       4.7488903869E-01               0
GRID*               1379               0-3.907109589E-016.6198211431E-01+
*       3.7314227871E-01               0
GRID*               1380               06.0067064372E-014.6896992001E-01+
*       3.2629876119E-01               0
GRID*               1381               01.9284013536E-01-2.455067001E-01+
*       4.5775339634E-01               0
GRID*               1382               05.1005132968E-01-2.448801970E-01+
*       4.1265477397E-01               0
GRID*               1383               0-8.802078567E-022.9722857298E-01+
*       -4.521648524E-01               0
GRID*               1384               0-6.802660391E-01-2.038554901E-01+
*       7.0271187708E-01               0
GRID*               1385               0-7.165277559E-01-2.295813804E-01+
*       5.5601661022E-01               0
GRID*               1386               0-6.203808230E-01-1.946792622E-01+
*       5.7303956704E-01               0
GRID*               1387               0-7.125954074E-01-3.325422871E-01+
*       6.9506977103E-01               0
GRID*               1388               01.1643630183E-014.8296944395E-01+
*       -7.832320497E-01               0
GRID*               1389               01.9244054253E-015.2116412485E-01+
*       -6.972899218E-01               0
GRID*               1390               03.2837124249E-013.9170942036E-01+
*       9.2143722914E-01               0
GRID*               1391               02.6015938121E-025.5933660852E-01+
*       -5.361708138E-01               0
GRID*               1392               03.9638676284E-014.0079905684E-01+
*       -5.881326517E-01               0
GRID*               1393               0-5.002617007E-01-8.262656516E-01+
*       -2.737710672E-02               0
GRID*               1394               0-6.229165605E-01-8.871239904E-01+
*       -4.825094105E-02               0
GRID*               1395               0-5.280882774E-01-9.879187223E-01+
*       -3.371380712E-02               0
GRID*               1396               0-5.792096580E-01-9.443499346E-01+
*       5.8559956789E-02               0
GRID*               1397               0-1.006087029E+002.5694768775E-01+
*       9.0640125664E-01               0
GRID*               1398               01.8328314903E-012.6918855655E-01+
*       -6.902762798E-01               0
GRID*               1399               08.8637345006E-022.6176468359E-01+
*       -6.311142477E-01               0
GRID*               1400               0-3.573273858E-017.9684421648E-01+
*       -1.306370430E-01               0
GRID*               1401               0-3.203375145E-017.6451980240E-01+
*       -1.888394910E-02               0
GRID*               1402               0-2.315134727E-018.5379390038E-01+
*       -3.532178728E-02               0
GRID*               1403               0-3.799567433E-019.1208745651E-01+
*       -3.914751875E-03               0
GRID*               1404               0-3.579226231E-019.1256125454E-01+
*       -1.902129544E-01               0
GRID*               1405               0-3.297860913E-015.3683471717E-01+
*       4.2402770243E-01               0
GRID*               1406               0-6.213192587E-01-7.622668398E-01+
*       -7.936457651E-02               0
GRID*               1407               0-5.788609810E-01-9.020196661E-01+
*       -1.361848939E-01               0
GRID*               1408               0-6.033716987E-013.7245035471E-01+
*       -4.737684009E-01               0
GRID*               1409               0-6.805085027E-013.4771361103E-01+
*       -6.055327456E-01               0
GRID*               1410               0-7.201367828E-013.5058478417E-01+
*       -5.047951767E-01               0
GRID*               1411               0-4.649681950E-013.7537354643E-01+
*       -4.813656423E-01               0
GRID*               1412               0-5.365502165E-011.8906331202E-01+
*       -5.963767939E-01               0
GRID*               1413               0-6.920000865E-011.9152788823E-01+
*       -6.001405264E-01               0
GRID*               1414               03.3721358261E-017.3970401242E-01+
*       2.3827426521E-01               0
GRID*               1415               05.0507500743E-016.4475254890E-01+
*       1.2738147611E-01               0
GRID*               1416               03.8146798684E-016.5632286669E-01+
*       1.3454409588E-01               0
GRID*               1417               0-4.200499789E-01-5.141110749E-01+
*       4.6155639865E-01               0
GRID*               1418               0-2.795476592E-01-5.408837573E-01+
*       5.3297660458E-01               0
GRID*               1419               0-2.989150197E-01-7.535993910E-01+
*       4.3514882138E-01               0
GRID*               1420               0-3.720355973E-01-7.681518474E-01+
*       2.8413614088E-02               0
GRID*               1421               0-2.636703793E-01-8.479958979E-01+
*       8.5601238864E-02               0
GRID*               1422               0-3.808916527E-01-7.639709247E-01+
*       2.0212095863E-01               0
GRID*               1423               0-3.967773743E-01-8.862066435E-01+
*       1.4781151337E-01               0
GRID*               1424               0-2.371671605E-01-7.287227213E-01+
*       3.4510978334E-01               0
GRID*               1425               0-3.740044674E-01-7.105722840E-01+
*       3.1646392459E-01               0
GRID*               1426               04.4373820791E-01-4.669848624E-01+
*       7.0928325581E-01               0
GRID*               1427               03.1119227560E-01-4.440992018E-01+
*       6.1231741810E-01               0
GRID*               1428               04.5254766096E-01-3.328707675E-01+
*       6.2778860747E-01               0
GRID*               1429               04.5293814786E-01-4.602669481E-01+
*       5.6272585802E-01               0
GRID*               1430               07.8812717523E-015.8971235194E-01+
*       1.1173918849E-01               0
GRID*               1431               08.0657667526E-015.9393790640E-01+
*       -8.139935791E-02               0
GRID*               1432               08.5418334603E-017.2301539809E-01+
*       4.3221133768E-02               0
GRID*               1433               09.1688026936E-016.0585674400E-01+
*       8.5026333329E-02               0
GRID*               1434               05.7837386219E-01-4.186061045E-01+
*       6.3927007829E-01               0
GRID*               1435               06.3278452748E-01-5.034347786E-01+
*       4.9954847532E-01               0
GRID*               1436               04.8676772654E-01-5.839524519E-01+
*       4.8540890013E-01               0
GRID*               1437               04.7169130086E-01-4.454012040E-01+
*       4.1678116991E-01               0
GRID*               1438               05.7337208372E-01-3.590293136E-01+
*       4.7214584609E-01               0
GRID*               1439               03.7335936799E-01-3.562596349E-01+
*       5.0638615276E-01               0
GRID*               1440               03.7684947210E-012.7647069357E-01+
*       9.0557232805E-01               0
GRID*               1441               03.5295283667E-01-5.111285496E-01+
*       4.2784674512E-01               0
GRID*               1442               01.1046465070E-016.4218817004E-01+
*       -5.725780077E-01               0
GRID*               1443               01.9415636671E-014.0359331805E-01+
*       -8.075007578E-01               0
GRID*               1444               02.8030019838E-013.6245416936E-01+
*       -7.632175639E-01               0
GRID*               1445               01.0816334556E+00-2.646699567E-01+
*       5.8630012768E-01               0
GRID*               1446               0-3.334084622E-023.0938251666E-01+
*       -6.674472913E-01               0
GRID*               1447               0-1.688008129E-01-4.730289539E-01+
*       5.3219849541E-01               0
GRID*               1448               0-7.124600898E-02-5.808460120E-01+
*       5.4885458259E-01               0
GRID*               1449               08.6638177987E-02-5.238663997E-01+
*       5.7939784295E-01               0
GRID*               1450               05.2562119399E-011.5749969671E-01+
*       -5.606778703E-01               0
GRID*               1451               04.0357056012E-019.7936895033E-02+
*       -4.818913344E-01               0
GRID*               1452               0-5.024376699E-01-1.416589773E-01+
*       -5.755817740E-01               0
GRID*               1453               07.5604554499E-016.3465379837E-01+
*       2.7605789634E-01               0
GRID*               1454               09.4824810065E-015.5638249123E-01+
*       1.9069029573E-01               0
GRID*               1455               08.5258079181E-014.9982465701E-01+
*       2.8234788751E-01               0
GRID*               1456               06.7436749539E-016.5082178412E-01+
*       1.9466768385E-01               0
GRID*               1457               01.0519182580E-01-1.119711720E+00+
*       8.6992842292E-01               0
GRID*               1458               0-3.446637990E-015.1638383275E-01+
*       -3.474188844E-01               0
GRID*               1459               0-3.214336050E-016.6461126928E-01+
*       -3.335383945E-01               0
GRID*               1460               0-4.895111373E-015.7138674706E-01+
*       -2.953735465E-01               0
GRID*               1461               0-3.453033385E-015.0139548706E-01+
*       -4.681609127E-01               0
GRID*               1462               02.5807529341E-015.8403802042E-01+
*       7.1266816754E-01               0
GRID*               1463               01.3552244353E-014.9962310531E-01+
*       7.0735543906E-01               0
GRID*               1464               08.3960851379E-013.3093655722E-01+
*       2.6211149111E-02               0
GRID*               1465               08.8060000488E-014.5436296594E-01+
*       1.5943162174E-01               0
GRID*               1466               09.2416475050E-013.4900883690E-01+
*       1.6183119357E-01               0
GRID*               1467               01.0827220941E+002.2568844667E-01+
*       5.2915878470E-02               0
GRID*               1468               09.7144920775E-012.6134910548E-01+
*       -1.028061288E-01               0
GRID*               1469               09.9788716448E-011.2664166492E-01+
*       -6.274458543E-02               0
GRID*               1470               09.4611970373E-012.7805235271E-01+
*       3.1456743774E-02               0
GRID*               1471               0-4.926844742E-014.8141196945E-01+
*       -8.862998882E-02               0
GRID*               1472               02.7378286912E-011.5555578023E-01+
*       -4.619285339E-01               0
GRID*               1473               0-3.468669895E-02-6.087854837E-02+
*       1.4248832783E+00               0
GRID*               1474               06.4425433215E-022.2679451315E-02+
*       1.4251289854E+00               0
GRID*               1475               0-9.942743197E-015.2131257157E-01+
*       5.7295906916E-01               0
GRID*               1476               0-1.033302122E+004.1131488059E-01+
*       4.6466922458E-01               0
GRID*               1477               0-6.023567578E-015.8449442791E-02+
*       9.1864350015E-01               0
GRID*               1478               0-5.679805880E-01-3.103782673E-02+
*       9.0497593623E-01               0
GRID*               1479               06.3435491443E-014.6584713456E-01+
*       4.7949925187E-03               0
GRID*               1480               06.8126692645E-015.6547474645E-01+
*       6.1580239316E-03               0
GRID*               1481               06.8372804859E-017.0100951362E-01+
*       4.4568321775E-02               0
GRID*               1482               05.4636555781E-015.9260273962E-01+
*       3.7034038423E-02               0
GRID*               1483               09.0990488796E-014.1124378105E-01+
*       4.3190167737E-02               0
GRID*               1484               09.7239342424E-015.0284673729E-01+
*       6.4637836202E-02               0
GRID*               1485               0-1.545477161E-01-6.462052233E-01+
*       7.7204930534E-02               0
GRID*               1486               01.5443493246E-01-6.479091810E-01+
*       2.5884031399E-01               0
GRID*               1487               0-1.064075269E+003.1633120333E-01+
*       3.8218208753E-01               0
GRID*               1488               0-1.024286056E+003.9197474469E-01+
*       2.9502376053E-01               0
GRID*               1489               03.0106766846E-01-5.757392143E-01+
*       2.6668551664E-01               0
GRID*               1490               02.5376271959E-026.4350933553E-02+
*       1.2216794502E+00               0
GRID*               1491               0-4.302664476E-023.5112787032E-02+
*       1.2833271735E+00               0
GRID*               1492               0-3.678957349E-013.5298346538E-01+
*       8.4770198693E-01               0
GRID*               1493               0-3.994770894E-012.9735654746E-01+
*       9.1995643610E-01               0
GRID*               1494               0-3.403573007E-013.6969849168E-01+
*       9.3481554714E-01               0
GRID*               1495               0-4.583358597E-013.5503406258E-01+
*       9.0572011476E-01               0
GRID*               1496               01.2793405442E-012.2357689096E-01+
*       -5.240413956E-01               0
GRID*               1497               08.8818817347E-016.9298020974E-01+
*       2.0056630443E-01               0
GRID*               1498               08.1441959692E-012.2250971373E-01+
*       3.2661226991E-01               0
GRID*               1499               09.5181137193E-012.2494007394E-01+
*       2.9448652550E-01               0
GRID*               1500               09.1882415484E-013.5589298878E-01+
*       2.8484840719E-01               0
GRID*               1501               08.7314619152E-011.8417682986E-01+
*       1.4184529001E-01               0
GRID*               1502               0-6.434357028E-019.1217680556E-01+
*       5.6991994517E-01               0
GRID*               1503               0-1.680215553E-01-1.203570515E-01+
*       -8.567321628E-01               0
GRID*               1504               0-2.033646304E-01-7.246288450E-02+
*       -9.046927832E-01               0
GRID*               1505               0-1.793372386E-01-7.523051479E-04+
*       -8.559720728E-01               0
GRID*               1506               0-1.232390288E-01-6.900847161E-02+
*       -9.200239134E-01               0
GRID*               1507               0-4.547398681E-01-6.391530534E-01+
*       3.9835449698E-01               0
GRID*               1508               08.3385176397E-01-3.459417998E-01+
*       -6.987924182E-01               0
GRID*               1509               09.5660430703E-01-3.105123871E-01+
*       -7.023956125E-01               0
GRID*               1510               08.7398975315E-01-2.895992721E-01+
*       -8.076506556E-01               0
GRID*               1511               0-1.615869444E-01-7.343634077E-01+
*       4.2745153322E-01               0
GRID*               1512               0-1.936267755E-01-6.336724696E-01+
*       5.9717009353E-01               0
GRID*               1513               0-3.614142370E-01-6.948059886E-01+
*       5.8119277191E-01               0
GRID*               1514               0-2.267048733E-01-5.429095767E-01+
*       6.9656472682E-01               0
GRID*               1515               0-3.519936425E-017.2429635549E-01+
*       9.0385777416E-01               0
GRID*               1516               0-4.740735653E-017.0827519193E-01+
*       9.2224065647E-01               0
GRID*               1517               09.3853570975E-01-2.821685567E-01+
*       -5.692146564E-01               0
GRID*               1518               05.9146123966E-01-2.812223848E-01+
*       1.8525688759E-01               0
GRID*               1519               07.7204672309E-01-4.737056705E-01+
*       -5.794212011E-01               0
GRID*               1520               0-2.675904485E-018.0783970336E-01+
*       9.6128169447E-02               0
GRID*               1521               06.8408286863E-01-6.015939502E-01+
*       -5.890961609E-01               0
GRID*               1522               07.1536990641E-01-5.335695901E-01+
*       -7.440086045E-01               0
GRID*               1523               08.4931031638E-01-6.007144920E-01+
*       -6.939870566E-01               0
GRID*               1524               07.1877050278E-01-6.727519851E-01+
*       -6.709064782E-01               0
GRID*               1525               06.2349448460E-01-4.908364871E-01+
*       -6.572192577E-01               0
GRID*               1526               05.5045242488E-01-5.385634875E-01+
*       1.2552150088E-01               0
GRID*               1527               05.5362217609E-01-5.268210370E-01+
*       -6.308573497E-02               0
GRID*               1528               06.1745067178E-01-4.461953637E-01+
*       -1.833517738E-01               0
GRID*               1529               09.1290958185E-01-4.089565930E-01+
*       -5.966302180E-01               0
GRID*               1530               08.7695047566E-01-4.649906895E-01+
*       -6.867668508E-01               0
GRID*               1531               05.0598766806E-01-5.081710690E-01+
*       -3.471808340E-01               0
GRID*               1532               05.4887230243E-01-5.228271543E-01+
*       -1.958147958E-01               0
GRID*               1533               05.6374606114E-01-5.956385301E-01+
*       -7.192434149E-01               0
GRID*               1534               05.8365079983E-01-7.057631611E-01+
*       -6.573844360E-01               0
GRID*               1535               06.4569840409E-01-7.487761981E-01+
*       -7.991734215E-01               0
GRID*               1536               0-1.553058640E-02-2.102752563E-01+
*       -6.431869314E-01               0
GRID*               1537               0-8.490726477E-02-8.159456823E-02+
*       -5.869376366E-01               0
GRID*               1538               0-1.112060190E-01-2.290967049E-01+
*       -5.741806976E-01               0
GRID*               1539               0-2.689803200E-03-1.939565033E-01+
*       -5.248306254E-01               0
GRID*               1540               06.4184489641E-01-5.528357442E-01+
*       -8.152923180E-01               0
GRID*               1541               07.0863716642E-01-4.031249625E-01+
*       -7.979173194E-01               0
GRID*               1542               06.9975795877E-01-4.701810437E-01+
*       -9.135323950E-01               0
GRID*               1543               0-6.119279460E-03-3.857716070E-02+
*       -5.321427741E-01               0
GRID*               1544               01.0424247721E+00-1.400137344E-01+
*       -6.961219903E-01               0
GRID*               1545               01.1248970436E+00-3.772560820E-02+
*       -5.711732700E-01               0
GRID*               1546               01.0598599707E+00-1.065225742E-03+
*       -9.123822994E-01               0
GRID*               1547               01.1119704674E+00-7.792062997E-02+
*       -8.566380177E-01               0
GRID*               1548               0-8.099848472E-017.4796709771E-01+
*       2.8884511053E-01               0
GRID*               1549               0-8.832043662E-016.5364408945E-01+
*       3.0410536813E-01               0
GRID*               1550               0-8.231995694E-017.1611457301E-01+
*       3.9882018670E-01               0
GRID*               1551               0-2.274168820E-01-1.635983500E-02+
*       4.6917791073E-01               0
GRID*               1552               03.2422175052E-03-5.618775307E-02+
*       -1.343260238E+00               0
GRID*               1553               01.1108738466E+00-1.876756972E-01+
*       -8.294446714E-01               0
GRID*               1554               09.8873360522E-01-1.063699109E-01+
*       -8.087918842E-01               0
GRID*               1555               0-2.551982051E-014.7549720113E-01+
*       -6.716709196E-01               0
GRID*               1556               0-1.224321715E-013.8144378432E-01+
*       -6.091131866E-01               0
GRID*               1557               0-2.132287370E-013.0007564670E-01+
*       -4.827364558E-01               0
GRID*               1558               05.7721405284E-015.5301304645E-01+
*       4.7018825966E-01               0
GRID*               1559               09.9739366484E-01-5.119730906E-02+
*       -6.685709354E-01               0
GRID*               1560               06.3308202407E-01-5.991192769E-01+
*       9.0561507655E-01               0
GRID*               1561               06.8114791321E-01-5.044109775E-01+
*       9.2854578146E-01               0
GRID*               1562               05.8162705090E-01-4.448213181E-01+
*       9.0885884596E-01               0
GRID*               1563               03.3868260063E-01-3.841128578E-01+
*       -9.176805478E-01               0
GRID*               1564               0-6.663998293E-01-1.172942860E-01+
*       1.2744634321E-01               0
GRID*               1565               0-7.204510340E-01-2.836154581E-01+
*       1.7443848218E-01               0
GRID*               1566               0-1.122843412E-016.2573769677E-01+
*       -4.800495814E-01               0
GRID*               1567               0-1.432782312E-016.0085188216E-01+
*       -7.045050206E-01               0
GRID*               1568               0-4.262257046E-026.8617153499E-01+
*       -5.982765004E-01               0
GRID*               1569               0-2.066513649E-016.7782231068E-01+
*       -5.984263329E-01               0
GRID*               1570               09.3880527504E-01-2.118905711E-02+
*       -8.018464435E-01               0
GRID*               1571               0-6.618551172E-027.6890767028E-01+
*       -3.450067327E-01               0
GRID*               1572               0-1.782824448E-017.1423674348E-01+
*       -3.675612078E-01               0
GRID*               1573               0-1.296032898E-018.0204251263E-01+
*       -5.113407827E-01               0
GRID*               1574               0-2.396743602E-017.2881726882E-01+
*       -4.822075181E-01               0
GRID*               1575               02.2675944592E-017.6455665090E-01+
*       8.1525407799E-03               0
GRID*               1576               01.0445472658E+007.2551731920E-02+
*       -7.873196053E-01               0
GRID*               1577               01.1102385913E+002.9563005708E-02+
*       5.9934441922E-01               0
GRID*               1578               01.1184342173E+00-3.114635923E-02+
*       3.8931970607E-01               0
GRID*               1579               05.5486842828E-02-3.152019640E-01+
*       -5.935504959E-01               0
GRID*               1580               07.6898962950E-02-2.097912523E-01+
*       -4.432493963E-01               0
GRID*               1581               01.7677091617E-01-2.343891178E-01+
*       -5.643418962E-01               0
GRID*               1582               0-6.462264783E-01-1.345313567E-01+
*       2.8709947678E-01               0
GRID*               1583               07.0105020012E-01-7.526571331E-01+
*       -3.951274450E-01               0
GRID*               1584               0-9.008245570E-01-5.610860316E-01+
*       -9.178248427E-01               0
GRID*               1585               0-9.772647298E-01-5.380612008E-01+
*       -8.149860161E-01               0
GRID*               1586               0-9.265257523E-01-6.405606809E-01+
*       -8.491520880E-01               0
GRID*               1587               0-4.379001840E-015.1053467696E-01+
*       5.0941665928E-01               0
GRID*               1588               0-2.791837776E-015.8739813002E-01+
*       5.3007335079E-01               0
GRID*               1589               0-3.318516090E-016.3091459766E-01+
*       6.1451500248E-01               0
GRID*               1590               0-2.506712156E-015.0782996356E-01+
*       6.8518762536E-01               0
GRID*               1591               0-2.125694130E-016.9817213793E-01+
*       5.9581427420E-01               0
GRID*               1592               0-9.655085663E-01-5.612029862E-01+
*       -6.357393672E-01               0
GRID*               1593               0-8.498875511E-01-6.907292341E-01+
*       -5.842004076E-01               0
GRID*               1594               0-9.212952033E-01-6.344930478E-01+
*       -5.084578229E-01               0
GRID*               1595               0-5.113380081E-01-4.249210685E-01+
*       4.6450932939E-01               0
GRID*               1596               0-9.163799505E-01-6.315307458E-01+
*       -7.232717646E-01               0
GRID*               1597               0-3.728340274E-01-4.830273180E-01+
*       5.9880598520E-01               0
GRID*               1598               0-8.116313712E-01-7.633691317E-01+
*       -7.532459893E-01               0
GRID*               1599               0-5.811841900E-01-2.992197847E-01+
*       3.7263404995E-01               0
GRID*               1600               0-1.441230236E-01-6.764053226E-01+
*       -5.910141169E-01               0
GRID*               1601               0-2.865639648E-01-6.677086049E-01+
*       -6.037634538E-01               0
GRID*               1602               0-1.496817092E-01-5.018431179E-01+
*       -6.700237144E-01               0
GRID*               1603               0-7.846643830E-02-4.400723607E-01+
*       -5.394227806E-01               0
GRID*               1604               0-8.532302808E-01-5.872295649E-01+
*       5.9375565912E-01               0
GRID*               1605               0-9.235797934E-01-6.335963948E-01+
*       4.8359883986E-01               0
GRID*               1606               0-1.010070944E+00-5.193900750E-01+
*       4.7308878861E-01               0
GRID*               1607               04.6349574322E-018.0088362183E-02+
*       9.0684516319E-01               0
GRID*               1608               03.5515252867E-015.2894413111E-02+
*       9.0566068214E-01               0
GRID*               1609               0-7.039954906E-01-6.149402609E-01+
*       -6.652211566E-01               0
GRID*               1610               0-8.451406511E-01-7.254159518E-01+
*       -6.709915447E-01               0
GRID*               1611               0-8.186059918E-01-5.443815721E-01+
*       -6.339196852E-01               0
GRID*               1612               0-4.194703136E-02-6.818629776E-01+
*       -4.886425943E-01               0
GRID*               1613               0-1.870238341E-01-8.134010678E-01+
*       -5.399927035E-01               0
GRID*               1614               0-3.046440197E-02-8.173464904E-01+
*       -5.739478112E-01               0
GRID*               1615               02.8778296957E-02-7.834268843E-01+
*       -4.612578389E-01               0
GRID*               1616               0-2.255378144E-02-6.921048620E-01+
*       -5.888475739E-01               0
GRID*               1617               0-3.264619798E-01-6.949434462E-01+
*       -7.577578708E-02               0
GRID*               1618               0-3.233256567E-01-6.840360259E-01+
*       1.1206570886E-01               0
GRID*               1619               0-6.964529181E-01-6.996086488E-01+
*       5.6008206493E-01               0
GRID*               1620               0-6.821489740E-01-7.093148825E-01+
*       4.3151718166E-01               0
GRID*               1621               0-8.142119930E-01-7.383476702E-01+
*       4.0319829685E-01               0
GRID*               1622               0-6.412176557E-01-9.255331441E-03+
*       -7.487656694E-01               0
GRID*               1623               0-5.125146312E-01-1.084163050E-01+
*       -8.044343146E-01               0
GRID*               1624               0-3.962696301E-01-1.031212707E-01+
*       -7.741573602E-01               0
GRID*               1625               0-4.930269718E-013.7213150115E-02+
*       -7.268975652E-01               0
GRID*               1626               0-7.433597831E-01-6.227747483E-01+
*       6.6725231182E-01               0
GRID*               1627               0-5.632561221E-015.0638724607E-02+
*       -6.171883204E-01               0
GRID*               1628               09.6632867207E-02-2.449669610E-01+
*       5.2521155290E-01               0
GRID*               1629               0-3.855500897E-04-2.164076896E-01+
*       5.5922304984E-01               0
GRID*               1630               0-8.296959214E-01-5.697141845E-01+
*       2.0417367650E-01               0
GRID*               1631               0-8.306251124E-01-4.622885130E-01+
*       3.5088730793E-01               0
GRID*               1632               0-9.454075213E-01-5.830924009E-01+
*       2.4984005094E-01               0
GRID*               1633               0-8.660147721E-01-6.411550041E-01+
*       3.5451671797E-01               0
GRID*               1634               07.4311652778E-023.0862814827E-01+
*       -4.951396805E-01               0
GRID*               1635               01.4517238013E-01-1.616262753E-01+
*       6.3358914350E-01               0
GRID*               1636               01.8536320653E-01-2.651998298E-01+
*       5.7298315396E-01               0
GRID*               1637               07.3420070603E-02-2.504264924E-01+
*       6.9824988165E-01               0
GRID*               1638               01.8480998724E-01-2.594986435E-01+
*       6.8399158902E-01               0
GRID*               1639               07.0651846298E-02-3.430215766E-01+
*       6.3665435375E-01               0
GRID*               1640               0-5.797762009E-01-6.139102809E-01+
*       4.3937826585E-01               0
GRID*               1641               0-6.622231020E-01-6.458583870E-01+
*       3.1190576555E-01               0
GRID*               1642               0-7.802870644E-01-5.880040030E-01+
*       4.4088765030E-01               0
GRID*               1643               0-4.052201971E-016.8531284523E-01+
*       -6.582090622E-03               0
GRID*               1644               0-8.965400330E-012.8095387195E-01+
*       9.2241861670E-01               0
GRID*               1645               0-3.930802248E-016.9531239447E-01+
*       1.8641253652E-01               0
GRID*               1646               0-4.575558968E-017.9036442635E-01+
*       9.6415225874E-02               0
GRID*               1647               0-7.876889242E-01-3.823066286E-01+
*       4.2622515242E-01               0
GRID*               1648               0-6.499059122E-01-4.950850590E-01+
*       4.1109432880E-01               0
GRID*               1649               0-5.931899668E-016.6243716166E-01+
*       -3.273362764E-02               0
GRID*               1650               0-8.685466340E-01-5.620790382E-02+
*       1.4734425659E-01               0
GRID*               1651               06.3425045181E-014.6047126887E-01+
*       -1.177824389E-01               0
GRID*               1652               07.7299498760E-014.1561907546E-01+
*       -1.715516520E-01               0
GRID*               1653               0-9.788300306E-016.4897200902E-02+
*       5.3973326330E-01               0
GRID*               1654               0-1.091540952E+00-2.154141085E-02+
*       5.5489028561E-01               0
GRID*               1655               0-1.116909385E+00-6.982464134E-02+
*       4.3438767550E-01               0
GRID*               1656               0-9.402833029E-01-1.502014921E-01+
*       5.3405346608E-01               0
GRID*               1657               05.6798062204E-019.5666947730E-01+
*       6.4012195057E-01               0
GRID*               1658               06.4286810370E-012.4103744175E-01+
*       1.9172909832E-02               0
GRID*               1659               0-3.157867934E-01-6.788254888E-01+
*       -1.974356794E-01               0
GRID*               1660               0-4.849323303E-01-7.134180698E-01+
*       -3.021661125E-01               0
GRID*               1661               0-1.102603264E+007.2545694251E-02+
*       4.7634197339E-01               0
GRID*               1662               0-7.641276571E-01-1.521138803E-01+
*       1.9964130033E-01               0
GRID*               1663               0-8.625315179E-01-1.395482827E-01+
*       3.4095864053E-01               0
GRID*               1664               0-7.458752322E-013.3875954080E-01+
*       9.0493969669E-02               0
GRID*               1665               0-7.210714703E-015.1630879926E-01+
*       3.1059280539E-02               0
GRID*               1666               0-8.720530988E-014.7272245196E-01+
*       -5.454983365E-03               0
GRID*               1667               0-7.389377970E-012.9909035483E-01+
*       -2.393023732E-02               0
GRID*               1668               0-9.148033717E-01-2.765897205E-02+
*       3.9754672059E-01               0
GRID*               1669               04.6053245182E-016.3408420921E-01+
*       4.9106643474E-01               0
GRID*               1670               0-7.747633825E-017.8209321730E-01+
*       -1.920112890E-01               0
GRID*               1671               05.1266976375E-01-4.098936076E-01+
*       2.5750287194E-01               0
GRID*               1672               05.9802351372E-01-3.295593410E-01+
*       3.1981792684E-01               0
GRID*               1673               03.3344308687E-01-2.357768846E-01+
*       4.7689821345E-01               0
GRID*               1674               04.5397038306E-01-1.905530165E-01+
*       4.8839570182E-01               0
GRID*               1675               01.7313602722E-014.9702877776E-02+
*       -4.832921592E-01               0
GRID*               1676               0-2.849617080E-032.4586821641E-01+
*       -4.277225241E-01               0
GRID*               1677               01.7906759390E-011.4611340132E-01+
*       -5.432151140E-01               0
GRID*               1678               0-6.273799750E-014.5897419550E-01+
*       -3.222139403E-01               0
GRID*               1679               0-6.177238824E-016.2616926223E-01+
*       -3.811838958E-01               0
GRID*               1680               0-6.909640055E-015.7028466820E-01+
*       -2.375183972E-01               0
GRID*               1681               0-5.711859299E-015.3345993674E-01+
*       -1.975069250E-01               0
GRID*               1682               0-5.869811671E-014.7317693397E-01+
*       -4.226701831E-01               0
GRID*               1683               0-7.136416680E-013.3891586660E-01+
*       -3.403379975E-01               0
GRID*               1684               0-1.101158180E+00-2.073813956E-01+
*       5.0835743159E-01               0
GRID*               1685               0-1.070682521E+00-1.313732135E-01+
*       5.9997558453E-01               0
GRID*               1686               02.3380746392E-01-1.330795811E-01+
*       -9.274317903E-01               0
GRID*               1687               0-9.807446479E-01-2.021260161E-01+
*       3.9848501100E-01               0
GRID*               1688               0-1.530649805E-014.6670957180E-01+
*       6.1665152599E-01               0
GRID*               1689               0-3.477002861E-012.8578267036E-01+
*       -5.409921778E-01               0
GRID*               1690               01.3103729156E-01-7.359191204E-01+
*       4.5201897553E-02               0
GRID*               1691               0-8.673525098E-04-7.986373718E-01+
*       -3.093080613E-03               0
GRID*               1692               09.6296104437E-02-7.631736134E-01+
*       1.8108304741E-01               0
GRID*               1693               01.7226563000E-01-8.695298956E-01+
*       -8.348855151E-03               0
GRID*               1694               02.5540047409E-01-8.550271619E-01+
*       8.2251198304E-02               0
GRID*               1695               01.1322679571E-01-8.786724582E-01+
*       9.2773402837E-02               0
GRID*               1696               01.0576949219E-01-7.628035899E-01+
*       -9.881622768E-02               0
GRID*               1697               0-6.460161864E-014.2497883517E-01+
*       -1.907829600E-01               0
GRID*               1698               05.7822705184E-012.5409866351E-02+
*       7.1996668963E-01               0
GRID*               1699               06.4333860657E-01-1.731257198E-01+
*       5.9994294338E-01               0
GRID*               1700               06.5668735534E-01-2.279963080E-01+
*       4.5417597373E-01               0
GRID*               1701               04.0971216185E-017.0132597312E-02+
*       5.9733050006E-01               0
GRID*               1702               03.9685132740E-01-8.003124813E-02+
*       5.5332801409E-01               0
GRID*               1703               07.8765945378E-014.7863186258E-01+
*       2.0257993070E-02               0
GRID*               1704               09.7173188018E-015.6153335193E-01+
*       -4.701985518E-02               0
GRID*               1705               08.6548585886E-014.7848726066E-01+
*       -8.354749974E-02               0
GRID*               1706               0-5.805605640E-01-4.471760041E-01+
*       -4.339294323E-01               0
GRID*               1707               01.8904118998E-013.0356281045E-01+
*       6.4773245819E-01               0
GRID*               1708               08.7869600029E-011.9818074469E-02+
*       -5.234691092E-01               0
GRID*               1709               09.7414385897E-011.9300985011E-01+
*       -5.593115863E-01               0
GRID*               1710               09.8626030621E-016.7329434205E-02+
*       -4.341511959E-01               0
GRID*               1711               09.9512201222E-012.3008091076E-02+
*       -5.839379048E-01               0
GRID*               1712               0-8.777979974E-016.9662905888E-01+
*       7.2506136230E-01               0
GRID*               1713               0-8.781042077E-016.1109573912E-01+
*       6.4622797915E-01               0
GRID*               1714               07.2989293916E-012.2392747783E-01+
*       -7.046992900E-01               0
GRID*               1715               06.2802470360E-011.4339534813E-01+
*       -8.009748333E-01               0
GRID*               1716               05.8920325192E-012.6157493639E-01+
*       -6.996327491E-01               0
GRID*               1717               06.2437596009E-012.4397196511E-01+
*       -8.079890887E-01               0
GRID*               1718               0-6.537409072E-014.7899940946E-01+
*       3.4238266465E-01               0
GRID*               1719               0-4.480359864E-014.2911614422E-01+
*       4.0631790790E-01               0
GRID*               1720               06.9623452178E-01-4.973090853E-02+
*       -7.021728394E-01               0
GRID*               1721               06.6285791169E-01-8.329103901E-02+
*       -6.048920345E-01               0
GRID*               1722               06.9393030828E-01-1.118146129E-01+
*       -7.967271113E-01               0
GRID*               1723               05.6262073565E-01-4.911784982E-02+
*       -7.017646607E-01               0
GRID*               1724               02.1614294998E-017.1225041070E-01+
*       5.8447438390E-01               0
GRID*               1725               0-1.919987199E-011.9260566219E-01+
*       5.7846835099E-01               0
GRID*               1726               0-7.812807028E-016.8325018879E-01+
*       9.0442633823E-01               0
GRID*               1727               0-8.543615089E-015.9257154136E-01+
*       9.1604768385E-01               0
GRID*               1728               0-3.628143469E-02-5.924700710E-02+
*       -1.095366203E+00               0
GRID*               1729               0-3.812733362E-02-6.218946515E-02+
*       -1.171248795E+00               0
GRID*               1730               06.1481188214E-01-9.966454841E-03+
*       -8.064310192E-01               0
GRID*               1731               0-4.084124166E-014.5231206329E-01+
*       9.0761667608E-01               0
GRID*               1732               03.5472057854E-01-2.013606828E-01+
*       6.0770162954E-01               0
GRID*               1733               02.7258888319E-01-1.417578200E-01+
*       4.4921723585E-01               0
GRID*               1734               02.9911009606E-01-1.069202575E-01+
*       5.8498674668E-01               0
GRID*               1735               03.5313680042E-01-1.309797795E-01+
*       6.8992928556E-01               0
GRID*               1736               02.9334312283E-011.4227824450E-02+
*       5.9665538508E-01               0
GRID*               1737               03.8504979339E-011.3338079158E-02+
*       7.0340064144E-01               0
GRID*               1738               03.3475508831E-01-6.872279316E-01+
*       -1.873797538E-01               0
GRID*               1739               03.3357135866E-01-7.049454672E-01+
*       6.4484463252E-03               0
GRID*               1740               06.2020581961E-01-2.078269290E-01+
*       2.6187573594E-01               0
GRID*               1741               07.6902017852E-01-1.020647524E-01+
*       -6.774397558E-01               0
GRID*               1742               08.0597798502E-01-5.797395426E-02+
*       -8.041011513E-01               0
GRID*               1743               07.1322273584E-02-2.802247840E-02+
*       1.2073651454E+00               0
GRID*               1744               05.5975386427E-023.7567445757E-02+
*       1.1183627856E+00               0
GRID*               1745               01.6140919921E-02-6.733241109E-02+
*       1.1841924052E+00               0
GRID*               1746               0-2.772025210E-01-2.013826905E-01+
*       5.0534988457E-01               0
GRID*               1747               03.2649143971E-01-1.048564704E+00+
*       -3.004903798E-01               0
GRID*               1748               0-5.666517746E-01-5.722926222E-01+
*       8.1207020119E-03               0
GRID*               1749               0-1.766270957E-02-7.754039129E-01+
*       -1.784563753E-01               0
GRID*               1750               02.1016455846E-01-7.323501901E-01+
*       -1.990373073E-01               0
GRID*               1751               04.1260989161E-01-4.700895231E-01+
*       -4.564260068E-01               0
GRID*               1752               06.3097187033E-017.3884540859E-02+
*       -7.014303706E-01               0
GRID*               1753               06.5996422798E-011.8722973602E-01+
*       1.2631830584E-01               0
GRID*               1754               07.6307296292E-012.0379699713E-01+
*       3.0028954857E-02               0
GRID*               1755               0-9.292178293E-01-3.558981666E-01+
*       -6.882249258E-01               0
GRID*               1756               0-9.831943008E-01-2.054007269E-01+
*       -5.957095520E-01               0
GRID*               1757               0-9.211094822E-01-3.752603745E-01+
*       -5.099002066E-01               0
GRID*               1758               0-8.498117898E-01-3.237688027E-01+
*       -6.136898009E-01               0
GRID*               1759               0-9.167182651E-01-4.468012787E-01+
*       -5.964132225E-01               0
GRID*               1760               0-1.057602369E+00-3.689363270E-01+
*       -5.537190665E-01               0
GRID*               1761               0-8.478467263E-01-2.826123433E-01+
*       -5.095355806E-01               0
GRID*               1762               0-2.504901757E-02-6.449687781E-01+
*       4.2588962273E-01               0
GRID*               1763               01.1582241048E-02-4.343981528E-01+
*       5.7362452580E-01               0
GRID*               1764               02.2378249566E-01-5.963478187E-01+
*       4.4643562199E-01               0
GRID*               1765               0-1.856619120E-011.5241916448E-01+
*       9.3395566508E-01               0
GRID*               1766               0-7.731610584E-01-6.361373000E-01+
*       1.0236243283E-01               0
GRID*               1767               0-7.986811823E-01-7.954820350E-01+
*       1.1423041891E-01               0
GRID*               1768               0-8.862618476E-01-6.798300421E-01+
*       1.6189980263E-02               0
GRID*               1769               0-7.284078069E-01-7.037855579E-01+
*       6.8564183834E-03               0
GRID*               1770               0-4.473889189E-013.8888898038E-01+
*       6.3693740026E-01               0
GRID*               1771               0-5.362845444E-014.8985701296E-01+
*       6.1914003295E-01               0
GRID*               1772               0-5.848749835E-013.7069385924E-01+
*       6.2296122138E-01               0
GRID*               1773               0-6.581007071E-014.8999633480E-01+
*       4.7094949257E-01               0
GRID*               1774               0-5.735052368E-015.8757732059E-01+
*       4.7652681221E-01               0
GRID*               1775               0-4.074486429E-019.9856170356E-02+
*       -6.700229999E-01               0
GRID*               1776               0-4.719034686E-012.0785677919E-01+
*       -7.017961958E-01               0
GRID*               1777               0-7.083165873E-01-6.951409939E-01+
*       1.8877550537E-01               0
GRID*               1778               0-8.401867740E-01-7.170798265E-01+
*       2.5165036614E-01               0
GRID*               1779               08.8588308606E-02-1.760997534E-01+
*       -6.501030562E-01               0
GRID*               1780               0-2.216153061E-01-7.539679630E-01+
*       -1.720397004E-02               0
GRID*               1781               0-5.552567266E-016.2389417901E-01+
*       7.6891940435E-01               0
GRID*               1782               0-4.339008073E-015.8385448713E-01+
*       7.3287552752E-01               0
GRID*               1783               0-5.247621604E-014.7154509496E-01+
*       7.4391033945E-01               0
GRID*               1784               0-6.819063504E-014.2576650803E-01+
*       7.2815190058E-01               0
GRID*               1785               0-3.726368436E-014.8483716023E-01+
*       6.5024612628E-01               0
GRID*               1786               0-4.880903492E-016.0804841821E-01+
*       6.1535000544E-01               0
GRID*               1787               0-6.749461965E-015.2675208984E-01+
*       6.1714429747E-01               0
GRID*               1788               0-9.182045456E-01-6.269126156E-01+
*       1.0602613436E-01               0
GRID*               1789               0-7.340092320E-013.9463531033E-01+
*       1.9885254351E-01               0
GRID*               1790               0-6.137061185E-012.2027458005E-01+
*       6.0849074490E-01               0
GRID*               1791               0-6.177408152E-018.1934216396E-02+
*       6.2284794150E-01               0
GRID*               1792               0-6.860044336E-01-5.754940591E-01+
*       2.0420743157E-01               0
GRID*               1793               04.4890713435E-021.2094984796E-01+
*       -4.994347908E-01               0
GRID*               1794               0-7.613559301E-012.5121986382E-01+
*       -8.073697847E-01               0
GRID*               1795               0-5.768615121E-012.3859638190E-01+
*       -7.982690764E-01               0
GRID*               1796               0-6.986407759E-011.4545117077E-01+
*       -8.228410040E-01               0
GRID*               1797               0-6.819825891E-012.0722995209E-01+
*       -9.054945367E-01               0
GRID*               1798               0-9.553373105E-027.8872226545E-01+
*       3.9557731300E-01               0
GRID*               1799               0-2.513642140E-017.1639959231E-01+
*       2.9005891125E-01               0
GRID*               1800               0-5.778499045E-021.0169947741E+00+
*       -8.986245533E-01               0
GRID*               1801               06.1938702702E-029.6418850024E-01+
*       -9.340980087E-01               0
GRID*               1802               0-1.188537913E-017.6919608593E-01+
*       -1.967784039E-01               0
GRID*               1803               0-8.052632033E-012.0248501394E-01+
*       -5.001982578E-01               0
GRID*               1804               0-9.997596254E-012.0061184970E-01+
*       -4.697249956E-01               0
GRID*               1805               0-8.938195819E-013.9831351576E-02+
*       -4.841035474E-01               0
GRID*               1806               0-8.922477007E-012.0217535613E-01+
*       -3.797977670E-01               0
GRID*               1807               0-7.045885882E-012.0153352788E-01+
*       -7.188739091E-01               0
GRID*               1808               0-5.948136475E-011.7649407368E-01+
*       -7.050414595E-01               0
GRID*               1809               0-8.155477615E-012.7346466807E-01+
*       -6.542929825E-01               0
GRID*               1810               0-7.447405354E-013.4756926686E-01+
*       -7.256544051E-01               0
GRID*               1811               03.2815799568E-025.6835970971E-02+
*       -5.897987700E-01               0
GRID*               1812               0-2.447415310E-019.4221688037E-01+
*       1.9661253212E-01               0
GRID*               1813               0-7.688334733E-021.9438450989E-01+
*       -5.096293216E-01               0
GRID*               1814               0-2.140790357E-01-2.827184927E-01+
*       5.7400929193E-01               0
GRID*               1815               05.1488996266E-01-3.900746403E-01+
*       -5.981728017E-01               0
GRID*               1816               04.5642375650E-01-4.872175750E-01+
*       -6.367392586E-01               0
GRID*               1817               04.3005049383E-01-6.066247492E-01+
*       -5.132619184E-01               0
GRID*               1818               03.1924624655E-01-4.613305000E-01+
*       -5.749074666E-01               0
GRID*               1819               05.3505093250E-01-5.245876257E-01+
*       -5.056123204E-01               0
GRID*               1820               0-7.407758940E-012.9981513784E-01+
*       -1.652145437E-01               0
GRID*               1821               0-8.354722732E-012.2158655357E-01+
*       -5.752281401E-02               0
GRID*               1822               0-8.165433153E-012.1558543126E-01+
*       -2.385903984E-01               0
GRID*               1823               0-8.678836588E-011.1231406620E-01+
*       -2.955065497E-01               0
GRID*               1824               0-7.522037982E-01-5.817596978E-02+
*       -4.463607952E-01               0
GRID*               1825               0-3.342445564E-019.3803998436E-01+
*       2.7871293516E-01               0
GRID*               1826               0-4.304210711E-019.1797576818E-01+
*       3.0991720857E-01               0
GRID*               1827               04.8323365358E-016.1664522646E-01+
*       -2.633961161E-01               0
GRID*               1828               0-3.969268127E-019.9537423376E-01+
*       9.1894410676E-01               0
GRID*               1829               0-2.290308206E-018.5184970714E-01+
*       3.4484973178E-01               0
GRID*               1830               0-2.278982336E-018.6704390970E-01+
*       5.1446997437E-01               0
GRID*               1831               0-4.948666040E-01-5.802895585E-01+
*       -4.326456236E-01               0
GRID*               1832               0-3.801098335E-01-4.682785760E-01+
*       -5.949358201E-01               0
GRID*               1833               09.7971207764E-02-7.247062153E-01+
*       3.5378183260E-01               0
GRID*               1834               04.0529628831E-01-5.191368314E-01+
*       2.7590652439E-01               0
GRID*               1835               01.6023111662E-017.9763525141E-01+
*       -2.979531792E-01               0
GRID*               1836               01.5217646144E-018.0251300058E-01+
*       -4.902360959E-01               0
GRID*               1837               02.6938179843E-018.4594895450E-01+
*       -3.870956552E-01               0
GRID*               1838               0-3.741351280E-014.7656383632E-01+
*       -5.960083741E-01               0
GRID*               1839               0-4.801074143E-014.1725804238E-01+
*       -6.166539548E-01               0
GRID*               1840               0-3.947215231E-014.6339549541E-01+
*       -7.137096966E-01               0
GRID*               1841               0-4.264944193E-013.3209230446E-01+
*       -7.030686923E-01               0
GRID*               1842               08.6661206544E-01-2.164660325E-01+
*       -9.157772030E-01               0
GRID*               1843               0-2.857307223E-013.3684594440E-01+
*       -6.409459931E-01               0
GRID*               1844               0-2.784888141E-016.0716835712E-01+
*       -6.959664180E-01               0
GRID*               1845               0-4.196699139E-016.0374643392E-01+
*       -6.036291561E-01               0
GRID*               1846               0-4.915969428E-014.8930284135E-01+
*       -5.136826642E-01               0
GRID*               1847               01.0425386436E-01-8.502031517E-01+
*       5.9203462565E-01               0
GRID*               1848               04.2622160057E-02-6.040612809E-01+
*       6.9991512313E-01               0
GRID*               1849               0-2.073327972E-032.5723932186E-01+
*       -5.612112828E-01               0
GRID*               1850               05.0809378809E-021.4931734293E-01+
*       -6.065961059E-01               0
GRID*               1851               01.7719927092E-011.5251030498E-01+
*       -6.757512431E-01               0
GRID*               1852               05.9265955142E-016.5082639556E-01+
*       -2.653215102E-01               0
GRID*               1853               06.2437408493E-015.9192194288E-01+
*       -3.537988677E-01               0
GRID*               1854               07.0511848155E-016.9311023336E-01+
*       -3.903683576E-01               0
GRID*               1855               07.3116781993E-016.8546102529E-01+
*       -2.692469418E-01               0
GRID*               1856               03.5273363104E-01-3.470406142E-01+
*       -6.367804857E-01               0
GRID*               1857               03.9216768622E-025.5356979936E-02+
*       -1.297868140E+00               0
GRID*               1858               06.5606428702E-016.1269244043E-01+
*       -1.735470456E-01               0
GRID*               1859               07.2931710363E-011.9129297203E-01+
*       -3.474542617E-01               0
GRID*               1860               06.8764527013E-012.1323700829E-01+
*       -5.987913434E-01               0
GRID*               1861               06.4447450296E-012.4800869942E-01+
*       -4.426356650E-01               0
GRID*               1862               03.6875947767E-017.5126824754E-01+
*       -3.466817229E-01               0
GRID*               1863               04.6919685583E-018.7262767628E-01+
*       -2.877899820E-01               0
GRID*               1864               03.8443551446E-019.3318352176E-01+
*       -2.957360067E-01               0
GRID*               1865               0-2.282393612E-018.3723261158E-01+
*       -1.912302777E-01               0
GRID*               1866               0-1.215615958E-018.8646666709E-01+
*       -1.056806860E-01               0
GRID*               1867               04.8911680017E-017.2083366025E-01+
*       -4.593997771E-01               0
GRID*               1868               06.5893859856E-016.1715149857E-01+
*       -5.022998931E-01               0
GRID*               1869               04.9601539988E-015.9766510930E-01+
*       -4.641709455E-01               0
GRID*               1870               05.8112348992E-016.6535264052E-01+
*       -5.619976034E-01               0
GRID*               1871               0-1.087605830E-017.9309794026E-01+
*       -9.785922554E-03               0
GRID*               1872               02.1130425949E-01-4.696916956E-01+
*       5.1835375491E-01               0
GRID*               1873               0-3.773400874E-012.8575682214E-01+
*       6.4836187990E-01               0
GRID*               1874               0-6.223493176E-014.5485294314E-01+
*       -5.796337924E-01               0
GRID*               1875               0-4.808203612E-015.2378354815E-01+
*       -6.439482232E-01               0
GRID*               1876               0-5.471337648E-015.9141305506E-01+
*       -5.427505116E-01               0
GRID*               1877               0-6.722016348E-015.9904542085E-01+
*       -4.897636419E-01               0
GRID*               1878               05.8971477617E-018.0056522527E-01+
*       -5.932770744E-01               0
GRID*               1879               04.5828797897E-017.5634918791E-01+
*       -5.769631432E-01               0
GRID*               1880               0-4.282900378E-016.0938137382E-01+
*       -4.223666201E-01               0
GRID*               1881               02.9364856710E-016.1373824580E-01+
*       -7.376597973E-01               0
GRID*               1882               03.7454953119E-016.4693104110E-01+
*       -5.974980668E-01               0
GRID*               1883               02.2536068937E-017.2293393014E-01+
*       -5.656662502E-01               0
GRID*               1884               03.1131816659E-016.8948610890E-01+
*       -4.796160361E-01               0
GRID*               1885               0-1.186780216E-017.8244630161E-01+
*       2.0374438754E-01               0
GRID*               1886               04.7948945618E-017.9800954473E-01+
*       -3.623935311E-01               0
GRID*               1887               05.7186307599E-019.3726444398E-01+
*       -3.852895445E-01               0
GRID*               1888               05.2220396979E-018.4451633786E-01+
*       -4.933116521E-01               0
GRID*               1889               04.4749594178E-019.0147974151E-01+
*       -3.973517570E-01               0
GRID*               1890               01.5555566339E-012.0695666283E-01+
*       5.9741368422E-01               0
GRID*               1891               02.4465100449E-02-5.831188357E-02+
*       1.3562854238E+00               0
GRID*               1892               06.6357046092E-017.4759130813E-01+
*       -4.850790701E-01               0
GRID*               1893               05.2414311742E-016.7498424572E-01+
*       -3.504818427E-01               0
GRID*               1894               0-1.455264513E-021.1832402468E-02+
*       7.1404834570E-01               0
GRID*               1895               0-7.770380502E-014.4284108048E-01+
*       -3.934725128E-01               0
GRID*               1896               05.9505022708E-018.0532216416E-01+
*       -4.057829508E-01               0
GRID*               1897               0-5.862147572E-013.4515268085E-01+
*       7.3628606275E-01               0
GRID*               1898               0-5.036093763E-012.3387146418E-01+
*       6.6373293948E-01               0
GRID*               1899               0-4.528131540E-013.9524329654E-01+
*       7.7597598118E-01               0
GRID*               1900               0-5.523646176E-014.0575384211E-01+
*       8.2217643740E-01               0
GRID*               1901               0-5.489230611E-013.4572696231E-01+
*       9.0174902912E-01               0
GRID*               1902               02.3616234627E-02-9.497882087E-01+
*       -1.864101566E-01               0
GRID*               1903               01.6735598756E-01-8.499053305E-01+
*       -2.350794939E-01               0
GRID*               1904               0-5.327787474E-02-8.823215404E-01+
*       -2.532913883E-01               0
GRID*               1905               0-3.958318890E-01-8.646921455E-01+
*       -1.215287320E-01               0
GRID*               1906               0-4.325716221E-01-1.039579980E+00+
*       -9.236326756E-02               0
GRID*               1907               0-4.726893635E-01-9.727894611E-01+
*       -1.895415107E-01               0
GRID*               1908               0-2.406920858E-01-9.802708860E-03+
*       -9.503420546E-01               0
GRID*               1909               0-4.009753647E-01-8.850485809E-01+
*       -1.070957386E-03               0
GRID*               1910               06.9654820064E-013.6099677886E-01+
*       6.9697676947E-02               0
GRID*               1911               0-1.810393074E-012.9910824076E-01+
*       -5.850614204E-01               0
GRID*               1912               0-4.548594231E-01-8.416597611E-01+
*       -2.428276410E-01               0
GRID*               1913               0-5.658440104E-01-9.691915318E-01+
*       -2.653633980E-01               0
GRID*               1914               0-5.740700313E-01-7.997029403E-01+
*       -3.116896013E-01               0
GRID*               1915               0-1.320486834E-01-8.345347970E-01+
*       3.3939883733E-02               0
GRID*               1916               0-3.155091994E-02-7.902815467E-01+
*       1.6511607118E-01               0
GRID*               1917               0-6.557478661E-01-8.476766862E-01+
*       -2.079401709E-01               0
GRID*               1918               0-2.502497025E-01-8.594463897E-01+
*       -1.102516018E-01               0
GRID*               1919               0-7.576850273E-01-8.316141387E-01+
*       -1.280196242E-01               0
GRID*               1920               05.9598736401E-02-5.544090296E-01+
*       -5.682102284E-01               0
GRID*               1921               01.2781526878E-01-6.894031321E-01+
*       -5.897610178E-01               0
GRID*               1922               04.3339444126E-018.2326549285E-01+
*       7.1309029496E-01               0
GRID*               1923               04.6879536965E-011.0122175322E+00+
*       7.2313584763E-01               0
GRID*               1924               0-2.893203516E-014.1843115298E-01+
*       6.1466411017E-01               0
GRID*               1925               06.6606927674E-01-3.723006272E-01+
*       1.9342664141E-01               0
GRID*               1926               05.7994399381E-017.9900878401E-01+
*       6.6863852992E-01               0
GRID*               1927               04.3706104108E-01-6.167083792E-01+
*       3.6669726926E-01               0
GRID*               1928               04.6951993072E-01-6.049263650E-01+
*       -1.786065706E-01               0
GRID*               1929               03.5499051661E-019.0321978136E-01+
*       7.8928186673E-01               0
GRID*               1930               09.6451649713E-01-2.282907775E-01+
*       2.7328847781E-03               0
GRID*               1931               08.7229083920E-01-1.880303659E-01+
*       -9.938834336E-02               0
GRID*               1932               09.4300763122E-01-3.289147101E-01+
*       -1.077880530E-02               0
GRID*               1933               08.6326270213E-01-2.185385108E-01+
*       1.0430700298E-01               0
GRID*               1934               07.1272318575E-01-5.117187790E-01+
*       -1.116767598E-01               0
GRID*               1935               06.6225037885E-01-3.976017446E-01+
*       -8.129128060E-02               0
GRID*               1936               07.6220195890E-01-4.585122315E-01+
*       2.1313913846E-03               0
GRID*               1937               06.6043185444E-01-5.799110587E-01+
*       -3.214267790E-02               0
GRID*               1938               07.1933153474E-01-5.284647803E-01+
*       1.0289825497E-01               0
GRID*               1939               07.9845494859E-01-5.641241620E-01+
*       2.6670064591E-01               0
GRID*               1940               08.8247101206E-01-4.587716140E-01+
*       2.0273786398E-01               0
GRID*               1941               08.2837335266E-01-5.025223519E-01+
*       3.7953067926E-01               0
GRID*               1942               0-2.292581818E-01-7.459265335E-01+
*       1.7896275097E-01               0
GRID*               1943               09.4428682314E-01-2.990054584E-01+
*       1.4198740332E-01               0
GRID*               1944               08.2038673014E-01-3.417199543E-01+
*       7.3106495011E-03               0
GRID*               1945               09.0417323002E-01-4.390324265E-01+
*       4.5083489109E-03               0
GRID*               1946               0-5.451075726E-01-5.719611447E-01+
*       -1.776193440E-01               0
GRID*               1947               07.4476045322E-01-4.727062351E-01+
*       2.0036486609E-01               0
GRID*               1948               08.4540959873E-01-5.206807156E-01+
*       9.8554586758E-02               0
GRID*               1949               07.9616327146E-01-4.102319619E-01+
*       1.0409177622E-01               0
GRID*               1950               0-2.092817108E-01-8.297138080E-01+
*       6.6430609883E-01               0
GRID*               1951               0-3.103188914E-01-7.845584265E-01+
*       6.9743408048E-01               0
GRID*               1952               0-2.377794695E-01-8.559578182E-01+
*       8.1659103867E-01               0
GRID*               1953               0-2.056092271E-01-7.641559091E-01+
*       8.0267452870E-01               0
GRID*               1954               07.7386537885E-019.4003135679E-02+
*       -2.466320255E-01               0
GRID*               1955               0-2.582678225E-01-4.886769499E-01+
*       -6.910378721E-01               0
GRID*               1956               0-1.250509735E-01-9.089923583E-01+
*       8.0603013589E-01               0
GRID*               1957               0-8.961983953E-02-1.082927264E+00+
*       7.9172701565E-01               0
GRID*               1958               0-2.353187171E-01-9.639862403E-01+
*       7.6851290673E-01               0
GRID*               1959               0-6.302687823E-02-1.001208549E+00+
*       6.9005929092E-01               0
GRID*               1960               0-8.386457376E-01-2.278055978E-01+
*       4.3734459528E-01               0
GRID*               1961               0-8.018634293E-01-1.655240062E-01+
*       6.0856187918E-01               0
GRID*               1962               0-7.138526629E-01-2.532684503E-01+
*       3.6972500610E-01               0
GRID*               1963               01.6234972943E-017.6858938652E-01+
*       -1.603500935E-01               0
GRID*               1964               04.4105767413E-027.6325445239E-01+
*       -3.450048057E-01               0
GRID*               1965               0-3.544904103E-01-5.755871064E-01+
*       7.0926494292E-01               0
GRID*               1966               0-2.216314410E-01-6.894951795E-01+
*       7.3025729091E-01               0
GRID*               1967               06.6428878668E-015.5403217180E-01+
*       3.5712356479E-01               0
GRID*               1968               0-1.386995687E-01-7.412081418E-01+
*       6.9174530760E-01               0
GRID*               1969               08.0828450920E-015.6534336081E-01+
*       3.5656062152E-01               0
GRID*               1970               0-5.062784958E-01-7.213484841E-01+
*       -1.043261535E-01               0
GRID*               1971               0-9.693268663E-02-4.856102630E-01+
*       6.7568003699E-01               0
GRID*               1972               0-8.237185338E-02-6.459740443E-01+
*       7.1444200442E-01               0
GRID*               1973               02.2336326441E-018.7441592943E-01+
*       4.2246310846E-01               0
GRID*               1974               09.4473422450E-028.5033787265E-01+
*       3.2980722877E-01               0
GRID*               1975               01.1607806452E-018.0727422672E-01+
*       5.1582332203E-01               0
GRID*               1976               01.1155608948E-019.6617321764E-01+
*       4.5400750867E-01               0
GRID*               1977               03.6987928993E-029.5706772937E-01+
*       3.4383745485E-01               0
GRID*               1978               0-2.341302862E-02-8.776881084E-01+
*       5.5462890069E-01               0
GRID*               1979               0-7.902004942E-02-9.929794541E-01+
*       5.0390402808E-01               0
GRID*               1980               0-1.935035696E-01-8.464927290E-01+
*       4.7081996457E-01               0
GRID*               1981               0-4.506061061E-02-8.609351518E-01+
*       4.4336362608E-01               0
GRID*               1982               0-5.743113521E-013.9402018144E-01+
*       -7.174675022E-01               0
GRID*               1983               08.6356445236E-012.1973837263E-01+
*       -2.848499353E-02               0
GRID*               1984               08.8909004655E-011.1994794574E-01+
*       2.4330660265E-02               0
GRID*               1985               08.8548971606E-011.0903249569E-01+
*       -1.710251229E-01               0
GRID*               1986               09.3472312829E-013.6347746566E-01+
*       -7.689160074E-02               0
GRID*               1987               08.4988501217E-013.1386497560E-01+
*       -1.732005414E-01               0
GRID*               1988               07.5464291450E-011.8952982333E-01+
*       -1.633532686E-01               0
GRID*               1989               0-6.133337414E-01-4.843645824E-01+
*       9.2428992538E-01               0
GRID*               1990               0-5.167647401E-01-4.885003845E-01+
*       8.9749979029E-01               0
GRID*               1991               0-3.793429163E-01-6.002441435E-02+
*       9.1570180612E-01               0
GRID*               1992               0-5.508578647E-01-3.846524006E-01+
*       -7.140542827E-01               0
GRID*               1993               0-4.577683000E-01-2.742326072E-01+
*       -7.117670523E-01               0
GRID*               1994               0-6.544756048E-01-3.363914855E-01+
*       -7.105699103E-01               0
GRID*               1995               05.6621346403E-024.6312471603E-02+
*       -1.382905012E+00               0
GRID*               1996               0-3.517578918E-016.4885353557E-01+
*       8.1249105023E-01               0
GRID*               1997               0-4.564723869E-015.4664817974E-01+
*       8.9771252082E-01               0
GRID*               1998               0-3.834419210E-016.1512449052E-01+
*       9.2760776622E-01               0
GRID*               1999               0-4.724420762E-016.8208179645E-01+
*       8.0412619371E-01               0
GRID*               2000               08.4355677018E-01-7.500952719E-01+
*       7.9315764797E-01               0
GRID*               2001               07.1525997585E-014.0854156447E-01+
*       -9.199542197E-01               0
GRID*               2002               01.5146376824E-01-7.010225151E-01+
*       8.9599566156E-01               0
GRID*               2003               03.3611984542E-011.0055372478E+00+
*       -9.176710590E-01               0
GRID*               2004               0-2.820744831E-018.1260174461E-01+
*       8.9949385783E-01               0
GRID*               2005               0-1.110350976E+00-1.917129742E-01+
*       1.7310788633E-01               0
GRID*               2006               0-9.445400293E-015.7203815991E-01+
*       -9.012187196E-02               0
GRID*               2007               03.0017676821E-01-5.023289606E-01+
*       -8.360801126E-01               0
GRID*               2008               02.6370047058E-01-6.178932324E-01+
*       -9.095412747E-01               0
GRID*               2009               03.6853349009E-01-6.407861984E-01+
*       -8.159751934E-01               0
GRID*               2010               02.2512911707E-01-5.690880419E-01+
*       -8.379360269E-01               0
GRID*               2011               0-6.043764176E-011.4763792597E-01+
*       -9.057406067E-01               0
GRID*               2012               06.8069732499E-014.2538834567E-01+
*       5.6866400954E-01               0
GRID*               2013               05.1442758572E-015.1683735717E-01+
*       6.1204012631E-01               0
GRID*               2014               06.9755984465E-015.6307802761E-01+
*       5.7061264172E-01               0
GRID*               2015               0-5.535765009E-01-1.421740856E-01+
*       -9.086342710E-01               0
GRID*               2016               0-4.605954585E-01-8.780326762E-02+
*       -9.132522722E-01               0
GRID*               2017               0-4.768352114E-01-1.932795950E-01+
*       -9.241827034E-01               0
GRID*               2018               0-5.953499371E-018.7354468324E-01+
*       -8.016046470E-01               0
GRID*               2019               06.6492235308E-024.1282036188E-02+
*       1.2706342911E+00               0
GRID*               2020               08.6681840890E-01-7.041286103E-01+
*       -4.874604237E-01               0
GRID*               2021               07.0468235728E-01-5.659203713E-01+
*       -9.046096428E-01               0
GRID*               2022               07.7816151835E-01-7.164535382E-01+
*       -9.271773027E-01               0
GRID*               2023               06.6563753892E-01-6.603692281E-01+
*       -8.340339988E-01               0
GRID*               2024               04.4863854848E-012.3229528502E-01+
*       6.9463144877E-01               0
GRID*               2025               09.8268865243E-01-3.629947818E-01+
*       -8.502481045E-01               0
GRID*               2026               08.8820962795E-01-3.156740888E-01+
*       -9.287466891E-01               0
GRID*               2027               02.6247452858E-01-4.333104536E-01+
*       -9.189855686E-01               0
GRID*               2028               06.1270874438E-016.5843077055E-01+
*       6.1034850579E-01               0
GRID*               2029               06.5136413181E-017.5032067622E-01+
*       7.5911536931E-01               0
GRID*               2030               06.4486662644E-01-9.160033968E-01+
*       -3.996338059E-01               0
GRID*               2031               05.6857033289E-012.7298687033E-01+
*       6.9397118945E-01               0
GRID*               2032               01.7469536579E-01-3.871802903E-01+
*       -9.184198723E-01               0
GRID*               2033               02.6614295061E-01-3.357537607E-01+
*       -9.145301869E-01               0
GRID*               2034               01.8999191403E-01-3.047481650E-01+
*       -9.325527365E-01               0
GRID*               2035               01.5120158977E-012.6652211356E-01+
*       -9.518683045E-01               0
GRID*               2036               01.0390428427E-012.2460017631E-01+
*       -9.476434546E-01               0
GRID*               2037               06.4654194262E-014.8248353245E-01+
*       -9.139056784E-01               0
GRID*               2038               07.0932938111E-015.5613817053E-01+
*       -8.917163905E-01               0
GRID*               2039               0-1.787958294E-021.0020321504E+00+
*       -7.888875037E-01               0
GRID*               2040               0-1.457289344E-011.1116780310E+00+
*       -6.683518742E-01               0
GRID*               2041               0-9.626415434E-029.4532872609E-01+
*       -7.041271543E-01               0
GRID*               2042               02.3969869312E-021.1141709826E+00+
*       -6.888658575E-01               0
GRID*               2043               01.9360200399E-015.0948507111E-01+
*       8.1811160393E-01               0
GRID*               2044               01.9784606987E-015.0012498250E-01+
*       9.2643435299E-01               0
GRID*               2045               0-4.804002968E-011.0083365144E+00+
*       -4.905084545E-01               0
GRID*               2046               0-7.776996531E-012.3665810862E-01+
*       -9.070342946E-01               0
GRID*               2047               0-6.743280877E-013.0469306727E-01+
*       -9.146482679E-01               0
GRID*               2048               03.2394971127E-022.4426107277E-01+
*       -9.305699310E-01               0
GRID*               2049               04.3853021949E-01-1.036586423E+00+
*       -2.942236751E-01               0
GRID*               2050               09.4112064803E-01-4.510179516E-01+
*       9.3200748462E-01               0
GRID*               2051               04.1322413395E-019.3283197429E-01+
*       -9.354170413E-01               0
GRID*               2052               02.3585442304E-014.2868681658E-01+
*       -9.317687403E-01               0
GRID*               2053               03.3888393890E-014.8923018328E-01+
*       -9.045457493E-01               0
GRID*               2054               06.5602460659E-01-2.886830181E-01+
*       5.8570511902E-01               0
GRID*               2055               07.6156467010E-01-3.791143032E-01+
*       5.0095187911E-01               0
GRID*               2056               01.0277051912E+00-1.186553471E-01+
*       -9.332079878E-01               0
GRID*               2057               07.0725694739E-01-4.268466508E-01+
*       5.9866713271E-01               0
GRID*               2058               0-1.106571970E+001.6086502758E-01+
*       -4.932121755E-01               0
GRID*               2059               01.1187988850E-01-6.699360801E-02+
*       9.2704205960E-01               0
GRID*               2060               04.2759471679E-016.2396245169E-01+
*       8.1014951250E-01               0
GRID*               2061               0-1.800181147E-014.5908340593E-01+
*       -9.156022782E-01               0
GRID*               2062               0-7.107320394E-018.6337250955E-01+
*       -8.754645554E-01               0
GRID*               2063               0-5.994921699E-019.6028115491E-01+
*       -9.210631125E-01               0
GRID*               2064               0-1.088068153E+003.6481698817E-02+
*       -5.871600353E-01               0
GRID*               2065               0-1.089513269E+00-3.725166713E-02+
*       -4.178838709E-01               0
GRID*               2066               05.7282863450E-01-9.687801546E-01+
*       7.5056049647E-01               0
GRID*               2067               02.7725602795E-01-3.281356877E-01+
*       5.0980155371E-01               0
GRID*               2068               01.3125622988E-01-5.032592406E-01+
*       9.2615681075E-01               0
GRID*               2069               0-2.177534573E-02-4.794241213E-01+
*       9.1521167736E-01               0
GRID*               2070               04.6292260556E-02-4.058886495E-01+
*       9.1536090177E-01               0
GRID*               2071               06.9531144244E-01-8.382127501E-01+
*       2.0459396990E-01               0
GRID*               2072               07.7217975887E-01-8.147324596E-01+
*       9.5994890636E-02               0
GRID*               2073               0-2.419860622E-011.1950599765E-01+
*       6.1260270394E-01               0
GRID*               2074               0-5.297378972E-013.7250850660E-01+
*       -9.396761426E-01               0
GRID*               2075               0-1.039784528E-01-1.110776821E+00+
*       -5.467587289E-01               0
GRID*               2076               0-8.048563308E-016.6443014202E-01+
*       -9.137913974E-01               0
GRID*               2077               0-3.005912511E-01-4.473050851E-01+
*       -9.051325035E-01               0
GRID*               2078               01.5873721130E-01-2.761266265E-01+
*       -8.683965904E-01               0
GRID*               2079               02.3705644084E-01-2.402433416E-01+
*       -9.157631069E-01               0
GRID*               2080               02.1046519287E-01-3.466185394E-01+
*       -8.240934179E-01               0
GRID*               2081               01.0341618818E-01-3.823891832E-01+
*       -8.264966326E-01               0
GRID*               2082               09.6390092047E-02-3.438464004E-01+
*       -9.240637645E-01               0
GRID*               2083               06.7773462161E-01-2.664554107E-01+
*       -9.281534026E-01               0
GRID*               2084               06.0370853892E-01-2.089801200E-01+
*       -9.276129869E-01               0
GRID*               2085               02.6799506578E-02-1.116565017E+00+
*       -4.441544862E-01               0
GRID*               2086               02.0385998867E-01-1.101344622E+00+
*       -5.161283568E-01               0
GRID*               2087               01.1480393132E-01-1.101671331E+00+
*       -3.362178112E-01               0
GRID*               2088               03.6063448835E-011.0498647697E+00+
*       2.9365217251E-01               0
GRID*               2089               07.6122333319E-015.8546077813E-01+
*       7.1047220232E-01               0
GRID*               2090               07.0892536164E-016.8683589546E-01+
*       6.7767453355E-01               0
GRID*               2091               06.9731152647E-016.1783346424E-01+
*       8.1117928402E-01               0
GRID*               2092               0-2.593466388E-01-9.013399682E-01+
*       9.3353432822E-01               0
GRID*               2093               07.6972598686E-021.1084796871E+00+
*       -8.577074040E-01               0
GRID*               2094               0-2.047643616E-01-9.177176626E-01+
*       -6.914038753E-01               0
GRID*               2095               0-2.717873967E-01-8.371718826E-01+
*       -7.985490852E-01               0
GRID*               2096               0-1.030259984E-01-8.387312545E-01+
*       -7.947178886E-01               0
GRID*               2097               0-1.233540188E-01-9.783319230E-01+
*       -7.777554026E-01               0
GRID*               2098               0-3.719760069E-014.5853125098E-01+
*       -9.328471507E-01               0
GRID*               2099               0-6.640757428E-01-7.498063620E-01+
*       -7.885025709E-01               0
GRID*               2100               0-4.773133317E-01-7.238239862E-01+
*       -7.171305360E-01               0
GRID*               2101               0-5.057979387E-01-8.355872094E-01+
*       -7.642356320E-01               0
GRID*               2102               0-9.079431749E-016.3164649534E-01+
*       -9.295506790E-01               0
GRID*               2103               08.2809432068E-017.5799789435E-01+
*       -8.184900998E-01               0
GRID*               2104               09.0193825507E-016.5698360926E-01+
*       -7.660060329E-01               0
GRID*               2105               03.0219660140E-01-7.682493191E-01+
*       9.2547817181E-01               0
GRID*               2106               03.1465308737E-01-9.966812943E-01+
*       9.2849919902E-01               0
GRID*               2107               05.5424368763E-01-8.541257849E-01+
*       9.3948084235E-01               0
GRID*               2108               08.8541680170E-01-6.795332886E-01+
*       -8.013625044E-01               0
GRID*               2109               06.2181716734E-012.9591128265E-02+
*       -9.029973826E-01               0
GRID*               2110               07.0909674440E-01-3.628448686E-02+
*       -9.031078286E-01               0
GRID*               2111               06.2165550657E-01-9.040254275E-02+
*       -9.047204609E-01               0
GRID*               2112               07.9191218902E-01-1.612831965E-01+
*       -9.076699127E-01               0
GRID*               2113               02.3554257493E-013.0994250539E-01+
*       -9.143467888E-01               0
GRID*               2114               04.4527699763E-01-9.344812844E-01+
*       5.9729684466E-01               0
GRID*               2115               05.0981135951E-01-8.639992338E-01+
*       4.9727529362E-01               0
GRID*               2116               05.6713454349E-01-9.641710398E-01+
*       5.5770826236E-01               0
GRID*               2117               04.7638332188E-01-1.008195094E+00+
*       4.8221868058E-01               0
GRID*               2118               0-3.324823526E-031.4478706230E-03+
*       8.1389905481E-01               0
GRID*               2119               05.5693453556E-02-3.076388192E-02+
*       9.2327465200E-01               0
GRID*               2120               02.7119158712E-024.7004238242E-02+
*       9.2349342340E-01               0
GRID*               2121               0-3.129291459E-02-2.759007959E-02+
*       9.2633051324E-01               0
GRID*               2122               09.6391523747E-027.8323447731E-01+
*       7.2524033943E-02               0
GRID*               2123               0-9.231556782E-016.4062679741E-01+
*       -1.674408939E-01               0
GRID*               2124               06.3996905404E-02-6.468364851E-01+
*       -9.062527768E-01               0
GRID*               2125               01.7298831518E-01-5.819509767E-01+
*       -9.350271829E-01               0
GRID*               2126               04.6489447586E-02-5.533410019E-01+
*       -9.263613101E-01               0
GRID*               2127               0-1.753079121E-011.0268179969E+00+
*       -9.305798038E-01               0
GRID*               2128               0-8.086647675E-017.8260857878E-01+
*       -4.699584752E-01               0
GRID*               2129               0-9.164271953E-01-4.679217327E-01+
*       9.1097708788E-01               0
GRID*               2130               0-9.647391592E-01-3.406828839E-01+
*       9.0206450125E-01               0
GRID*               2131               0-8.665671751E-01-3.449799449E-01+
*       9.2227576897E-01               0
GRID*               2132               03.0144452147E-02-7.631136423E-02+
*       -6.479034268E-01               0
GRID*               2133               01.5476232139E-01-8.271004049E-02+
*       -6.106993775E-01               0
GRID*               2134               01.6622977908E-015.5975206879E-02+
*       -6.176775749E-01               0
GRID*               2135               02.4220929768E-017.5237595414E-01+
*       -7.058608735E-01               0
GRID*               2136               03.6986483662E-016.8398779365E-01+
*       -7.100489615E-01               0
GRID*               2137               03.6059935237E-017.3979322153E-01+
*       -8.057042032E-01               0
GRID*               2138               0-5.124078648E-019.7211240412E-01+
*       -4.574339652E-02               0
GRID*               2139               0-4.874077403E-011.0076308135E+00+
*       -1.963292314E-01               0
GRID*               2140               0-4.616219727E-025.8554230576E-03+
*       -6.264503294E-01               0
GRID*               2141               07.0355783146E-02-8.007940376E-01+
*       -9.103536908E-01               0
GRID*               2142               0-7.862363279E-02-8.525167125E-01+
*       -9.045787927E-01               0
GRID*               2143               09.6166207207E-01-5.691391564E-01+
*       8.6163923875E-03               0
GRID*               2144               0-7.760364510E-02-1.100806277E+00+
*       9.3074538090E-01               0
GRID*               2145               02.7008989751E-011.1628125924E-01+
*       5.9182524701E-01               0
GRID*               2146               0-9.763153451E-02-5.598944041E-01+
*       9.4781400026E-01               0
GRID*               2147               02.9138829398E-012.5107571239E-01+
*       6.4010285722E-01               0
GRID*               2148               05.9727353550E-01-9.313977409E-01+
*       -8.494335312E-01               0
GRID*               2149               0-2.697258374E-01-8.774441655E-01+
*       -9.049674292E-01               0
GRID*               2150               0-9.326262829E-011.4934736195E-02+
*       -9.317807919E-01               0
GRID*               2151               0-1.035114826E+003.3577773123E-01+
*       -1.213734769E-01               0
GRID*               2152               0-1.103571673E+002.1826271568E-01+
*       -2.106807911E-01               0
GRID*               2153               0-1.108196834E+00-4.548051654E-02+
*       7.0282953775E-01               0
GRID*               2154               0-2.216482227E-014.0308649341E-01+
*       9.3024282035E-01               0
GRID*               2155               0-4.641541758E-017.3037727421E-01+
*       -1.974466507E-01               0
GRID*               2156               07.2162159594E-028.9980026377E-02+
*       -8.504721943E-01               0
GRID*               2157               09.5939507278E-02-3.405091966E-02+
*       -8.042341788E-01               0
GRID*               2158               08.6673831573E-02-7.994546796E-04+
*       -8.960782361E-01               0
GRID*               2159               01.0217410560E+00-4.728413862E-01+
*       5.2526979995E-01               0
GRID*               2160               01.0536296242E+00-3.970650510E-01+
*       3.3879347806E-01               0
GRID*               2161               06.1110499454E-013.7175500283E-01+
*       -5.834476244E-01               0
GRID*               2162               0-5.039813427E-019.2585664371E-02+
*       9.2925920150E-01               0
GRID*               2163               06.0303211888E-01-5.152564406E-01+
*       -9.269133124E-01               0
GRID*               2164               02.9835105806E-016.4514636290E-01+
*       7.9673196293E-01               0
GRID*               2165               0-5.726698442E-012.5414922839E-01+
*       -9.126887451E-01               0
GRID*               2166               0-4.937362875E-011.8680303105E-01+
*       -9.187136538E-01               0
GRID*               2167               07.5255090712E-013.0748743169E-01+
*       -5.102465469E-01               0
GRID*               2168               0-3.191784432E-012.7360671798E-01+
*       -9.283645726E-01               0
GRID*               2169               0-8.283444952E-016.0746331203E-01+
*       -5.285219640E-01               0
GRID*               2170               0-7.148483732E-014.9553389131E-01+
*       -4.870423806E-01               0
GRID*               2171               0-1.108906247E+008.9637303902E-02+
*       -8.271315892E-01               0
GRID*               2172               0-1.111017181E+001.6098176067E-01+
*       -6.915202962E-01               0
GRID*               2173               0-6.440071002E-019.2079364769E-01+
*       -3.826785750E-01               0
GRID*               2174               01.2729936402E-012.5035558681E-01+
*       -7.719998699E-01               0
GRID*               2175               07.6714419996E-023.5712865889E-01+
*       -7.366701297E-01               0
GRID*               2176               01.1091174479E+00-1.422893072E-01+
*       6.1865925755E-01               0
GRID*               2177               01.0496295273E+00-4.046523706E-01+
*       -6.621726994E-01               0
GRID*               2178               01.1185825544E+00-1.253987259E-01+
*       -3.664358893E-01               0
GRID*               2179               01.1087412620E+00-2.761343294E-02+
*       -4.093458946E-01               0
GRID*               2180               01.6732822614E-019.0567321913E-01+
*       -9.240386735E-01               0
GRID*               2181               07.7104981999E-017.7346261617E-01+
*       7.7966575275E-01               0
GRID*               2182               0-4.747888035E-027.9328984772E-01+
*       -6.819255763E-01               0
GRID*               2183               0-2.622547960E-017.4013970731E-01+
*       -7.064456772E-01               0
GRID*               2184               0-1.041430375E+003.9649236522E-01+
*       -8.594531028E-01               0
GRID*               2185               0-1.451544849E-015.9349677436E-02+
*       -9.227528380E-01               0
GRID*               2186               0-4.593390597E-027.9761445944E-01+
*       8.0026391694E-02               0
GRID*               2187               05.3553750276E-01-9.801116111E-01+
*       -7.298501736E-01               0
GRID*               2188               0-1.007151300E+001.4970912435E-01+
*       9.2760284327E-01               0
GRID*               2189               08.1256125615E-017.8289344781E-02+
*       8.9948225078E-01               0
GRID*               2190               0-1.446747819E-02-3.052065159E-01+
*       9.3616727153E-01               0
GRID*               2191               01.0150367518E+00-4.124799928E-01+
*       -4.949410236E-01               0
GRID*               2192               09.8451775857E-01-4.885863053E-01+
*       -4.025455584E-01               0
GRID*               2193               04.4108500485E-01-7.807286112E-01+
*       8.0497228117E-01               0
GRID*               2194               04.5818461768E-01-7.093698328E-01+
*       9.0584164103E-01               0
GRID*               2195               03.6876967914E-01-6.929407881E-01+
*       9.2290542822E-01               0
GRID*               2196               09.4459076667E-01-9.457788536E-02+
*       -9.225354321E-01               0
GRID*               2197               0-7.294569662E-018.3185707791E-01+
*       8.0743891132E-01               0
GRID*               2198               0-9.754405610E-027.1816955879E-01+
*       -9.135073854E-01               0
GRID*               2199               0-1.097938830E+002.3777949786E-01+
*       -6.114657010E-02               0
GRID*               2200               0-1.075566762E+001.7677162583E-01+
*       -3.390150503E-01               0
GRID*               2201               0-3.194256503E-017.5838070290E-01+
*       -8.962288358E-01               0
GRID*               2202               0-6.987013810E-01-1.557807896E-02+
*       -9.307372933E-01               0
GRID*               2203               0-4.095818140E-014.5501365308E-02+
*       -8.077846980E-01               0
GRID*               2204               0-4.546161760E-01-2.147391399E-03+
*       -9.000249343E-01               0
GRID*               2205               0-5.284390676E-017.9253002344E-02+
*       -9.054945992E-01               0
GRID*               2206               0-4.248731656E-011.1155964239E-01+
*       -9.079585778E-01               0
GRID*               2207               05.6335558060E-01-9.630040926E-01+
*       -5.754366520E-01               0
GRID*               2208               02.7513406506E-014.9106456826E-01+
*       -7.993034797E-01               0
GRID*               2209               01.8884543992E-015.6642745806E-01+
*       -8.108208624E-01               0
GRID*               2210               04.0990774164E-01-6.269993259E-01+
*       -9.063449050E-01               0
GRID*               2211               07.8776580687E-014.5806407192E-01+
*       -9.161772076E-01               0
GRID*               2212               0-3.386737072E-025.7346748622E-02+
*       -1.069931903E+00               0
GRID*               2213               0-4.904412987E-03-7.481044766E-02+
*       -1.034924204E+00               0
GRID*               2214               05.4926683726E-014.9495855245E-01+
*       -4.037922025E-01               0
GRID*               2215               08.3744391484E-011.5721440879E-02+
*       -9.245305931E-01               0
GRID*               2216               07.2590593006E-016.7563500816E-02+
*       -9.181523408E-01               0
GRID*               2217               06.3228608348E-012.6159255222E-01+
*       -9.140584826E-01               0
GRID*               2218               05.4486232247E-012.1084416678E-01+
*       -9.138094927E-01               0
GRID*               2219               07.4918681136E-01-5.856902075E-01+
*       9.0827459948E-01               0
GRID*               2220               0-9.818913271E-01-9.009497843E-02+
*       1.9439011136E-01               0
GRID*               2221               01.3410720527E-014.8625515361E-01+
*       -9.265926609E-01               0
GRID*               2222               01.0076751000E-016.0323314295E-01+
*       -9.207154584E-01               0
GRID*               2223               0-1.015161535E+002.9064086405E-01+
*       2.7641709088E-01               0
GRID*               2224               0-1.085147982E+002.0744287146E-01+
*       3.3297260277E-01               0
GRID*               2225               0-5.174399736E-01-8.662401864E-01+
*       -8.993578813E-01               0
GRID*               2226               01.6491360414E-01-1.712590246E-01+
*       -8.701785379E-01               0
GRID*               2227               0-9.836841138E-01-3.312843249E-02+
*       2.8371012776E-01               0
GRID*               2228               0-4.802387865E-011.0036437894E+00+
*       3.8194890242E-01               0
GRID*               2229               04.3181802226E-01-2.510235387E-01+
*       7.0774058159E-01               0
GRID*               2230               05.5676392383E-01-3.129242432E-01+
*       7.0874599571E-01               0
GRID*               2231               05.7316707955E-01-2.060915236E-01+
*       7.0747657111E-01               0
GRID*               2232               0-2.383697447E-015.8399957504E-01+
*       8.0992288330E-01               0
GRID*               2233               0-2.761501306E-016.3877577538E-01+
*       9.1429214986E-01               0
GRID*               2234               0-1.914711793E-015.0119789662E-01+
*       9.1518900806E-01               0
GRID*               2235               0-1.832455677E-016.0988071127E-01+
*       9.2329866673E-01               0
GRID*               2236               0-9.503913382E-011.4307730395E-01+
*       -8.959962341E-01               0
GRID*               2237               0-9.340740923E-017.0593233975E-02+
*       -8.104847957E-01               0
GRID*               2238               0-1.045394878E+001.1496996295E-01+
*       -9.284568967E-01               0
GRID*               2239               09.9259600413E-014.5446175346E-01+
*       9.1432494498E-01               0
GRID*               2240               09.4096663755E-015.8645699895E-01+
*       9.4153618597E-01               0
GRID*               2241               08.7013668078E-015.0094397493E-01+
*       9.0390743080E-01               0
GRID*               2242               07.5181960667E-01-6.499226812E-01+
*       9.8171163225E-02               0
GRID*               2243               08.2840737661E-01-7.263760343E-01+
*       2.0889646749E-01               0
GRID*               2244               09.0450687876E-01-6.517873399E-01+
*       1.1650039346E-01               0
GRID*               2245               0-6.706452856E-016.9834582086E-01+
*       8.9589970090E-01               0
GRID*               2246               09.0720309539E-01-6.529620440E-01+
*       -1.020825917E-01               0
GRID*               2247               03.1531348432E-017.3666640358E-01+
*       4.9719941326E-01               0
GRID*               2248               0-1.365694338E-012.6148614689E-01+
*       9.3123085037E-01               0
GRID*               2249               0-1.047744326E+00-2.722490137E-02+
*       -9.312184304E-01               0
GRID*               2250               0-9.961898295E-014.9281445457E-01+
*       3.3647700247E-01               0
GRID*               2251               0-1.958015313E-01-1.105247648E+00+
*       -8.373050846E-01               0
GRID*               2252               0-1.600088819E-01-1.104983195E+00+
*       -6.830333934E-01               0
GRID*               2253               0-2.798157598E-01-1.065726979E+00+
*       -7.022332774E-01               0
GRID*               2254               0-5.588037840E-01-3.878153271E-01+
*       9.0052829243E-01               0
GRID*               2255               0-4.549829797E-01-4.158619929E-01+
*       9.0769190286E-01               0
GRID*               2256               0-5.198750399E-01-2.962724636E-01+
*       9.1093862670E-01               0
GRID*               2257               0-6.314303856E-028.8146502928E-01+
*       -2.693053502E-01               0
GRID*               2258               03.2786795661E-029.1164417824E-01+
*       -4.036808635E-01               0
GRID*               2259               0-3.610697229E-01-1.064109076E+00+
*       -8.381785435E-01               0
GRID*               2260               03.2507426063E-023.8664382904E-02+
*       -9.985931088E-01               0
GRID*               2261               03.8643763496E-021.0688250878E-01+
*       -9.348147718E-01               0
GRID*               2262               0-1.092536142E+002.3349764363E-01+
*       -8.460344747E-01               0
GRID*               2263               07.6095424079E-02-7.457842625E-01+
*       -2.635664699E-01               0
GRID*               2264               0-1.180869664E-01-7.822087784E-01+
*       -1.036157486E-01               0
GRID*               2265               01.2643884317E-01-1.087860658E+00+
*       2.9706341179E-01               0
GRID*               2266               0-4.992025087E-01-5.291184909E-01+
*       -6.043089918E-01               0
GRID*               2267               0-4.396111287E-01-4.653431823E-01+
*       -7.136392284E-01               0
GRID*               2268               0-6.286314768E-012.8705407534E-01+
*       -7.122075692E-01               0
GRID*               2269               06.1275147569E-01-2.515188374E-01+
*       9.0367288701E-01               0
GRID*               2270               07.3701696831E-016.2466812848E-01+
*       9.3415977677E-01               0
GRID*               2271               04.1180542578E-026.8590930909E-01+
*       6.1337346001E-01               0
GRID*               2272               01.6945673232E-019.7084581346E-01+
*       5.6878514054E-01               0
GRID*               2273               05.5269436246E-028.9372252486E-01+
*       6.0013218279E-01               0
GRID*               2274               01.8635568429E-018.4661792537E-01+
*       6.9148411686E-01               0
GRID*               2275               07.3401783244E-017.8156622687E-01+
*       -9.195633680E-01               0
GRID*               2276               0-6.434680303E-027.6254566098E-01+
*       5.6666542980E-01               0
GRID*               2277               02.6252812634E-018.3070039265E-01+
*       5.4930078567E-01               0
GRID*               2278               09.6302629490E-027.8144114980E-01+
*       6.4343205998E-01               0
GRID*               2279               0-1.083623654E+002.1631570006E-01+
*       2.0116129299E-01               0
GRID*               2280               0-4.934431003E-01-7.969068848E-01+
*       9.1073201229E-01               0
GRID*               2281               0-4.731309562E-01-6.778447221E-01+
*       9.1028858742E-01               0
GRID*               2282               0-5.396366635E-016.8454188270E-01+
*       2.8305984830E-01               0
GRID*               2283               01.0950999458E+002.1499723695E-01+
*       5.7871744877E-01               0
GRID*               2284               01.0845081932E+001.0520601405E-01+
*       4.9633510832E-01               0
GRID*               2285               01.4475219151E-011.1046841580E+00+
*       -9.088222004E-02               0
GRID*               2286               02.7039092632E-019.5052473952E-01+
*       -1.921272671E-01               0
GRID*               2287               02.1318773957E-019.7590900332E-01+
*       -1.266971117E-02               0
GRID*               2288               0-1.404829289E-01-7.445534802E-01+
*       2.6428973580E-01               0
GRID*               2289               01.0088032039E+004.1115735767E-01+
*       7.8127998930E-01               0
GRID*               2290               08.2115799571E-013.8421137420E-01+
*       9.0523752457E-01               0
GRID*               2291               09.9673996620E-013.3749990956E-01+
*       8.9691524104E-01               0
GRID*               2292               0-1.033770544E+00-1.411014356E-01+
*       9.0672322830E-01               0
GRID*               2293               0-1.099197244E+00-1.508768520E-01+
*       7.3472989400E-04               0
GRID*               2294               01.0210070320E-018.7382400665E-01+
*       -3.237937593E-02               0
GRID*               2295               01.8794755539E-018.8104471876E-01+
*       8.3045798735E-02               0
GRID*               2296               01.1592030974E-018.9832534098E-01+
*       2.0417378894E-01               0
GRID*               2297               0-7.131442784E-01-1.414598313E-01+
*       -7.511923176E-01               0
GRID*               2298               0-7.147664085E-01-2.333916160E-01+
*       -8.229001047E-01               0
GRID*               2299               0-6.823898150E-01-1.871797442E-02+
*       -5.838582679E-01               0
GRID*               2300               0-1.039377651E+00-4.319587991E-01+
*       5.3228392224E-01               0
GRID*               2301               0-3.780900172E-015.1426844887E-01+
*       8.1374111970E-01               0
GRID*               2302               09.6648876978E-015.4452439499E-01+
*       8.0333268171E-01               0
GRID*               2303               0-2.744475966E-01-1.082043257E+00+
*       -5.263138244E-01               0
GRID*               2304               0-1.252768396E-01-1.113454869E+00+
*       -4.596818241E-01               0
GRID*               2305               0-1.618850201E-01-9.895363782E-01+
*       -5.651086132E-01               0
GRID*               2306               05.7753103548E-01-1.604411209E-01+
*       9.0270350034E-01               0
GRID*               2307               05.0715688580E-01-2.502383693E-01+
*       9.0530550138E-01               0
GRID*               2308               04.5207841905E-01-1.178402347E-01+
*       9.2877045441E-01               0
GRID*               2309               0-1.296926191E-02-7.215743995E-01+
*       -7.073293815E-01               0
GRID*               2310               0-7.732071917E-02-6.220997097E-01+
*       -7.079909409E-01               0
GRID*               2311               0-3.552295122E-02-5.202828097E-01+
*       -6.420472267E-01               0
GRID*               2312               02.1333445608E-02-6.310167947E-02+
*       1.0639371122E+00               0
GRID*               2313               09.2045722461E-022.4147610335E-01+
*       9.3638856219E-01               0
GRID*               2314               0-2.855813278E-012.0982111116E-01+
*       9.3493940369E-01               0
GRID*               2315               0-3.663707218E-011.9637070836E-01+
*       9.2167264872E-01               0
GRID*               2316               02.7794817110E-01-6.492586428E-01+
*       -5.686663057E-01               0
GRID*               2317               02.7701790158E-01-6.636350587E-01+
*       -3.997335393E-01               0
GRID*               2318               0-6.707055454E-01-3.750926201E-01+
*       9.0994901297E-01               0
GRID*               2319               0-6.304546326E-01-3.028426750E-01+
*       9.2914446201E-01               0
GRID*               2320               0-6.699388882E-01-2.350245465E-01+
*       9.0490317407E-01               0
GRID*               2321               0-5.771497639E-01-2.180526398E-01+
*       9.0591017918E-01               0
GRID*               2322               0-5.217205276E-01-1.414306477E-01+
*       9.0688148515E-01               0
GRID*               2323               0-4.643582315E-01-2.321807338E-01+
*       9.1710622415E-01               0
GRID*               2324               01.6168557946E-01-7.008938237E-01+
*       -7.182598296E-01               0
GRID*               2325               02.8352647443E-01-6.471966487E-01+
*       -7.163910846E-01               0
GRID*               2326               02.1482194230E-01-5.683662897E-01+
*       -6.160396181E-01               0
GRID*               2327               0-5.839364706E-01-2.722295988E-01+
*       6.4423217374E-01               0
GRID*               2328               0-6.758466385E-01-3.403165835E-01+
*       4.7987174853E-01               0
GRID*               2329               0-8.335004122E-01-3.111098910E-01+
*       5.4590676571E-01               0
GRID*               2330               01.8566732965E-016.8327579938E-01+
*       -8.190463860E-01               0
GRID*               2331               01.8611524337E-016.5751557139E-01+
*       -7.007853994E-01               0
GRID*               2332               05.9540526748E-026.4059217679E-01+
*       -8.025233575E-01               0
GRID*               2333               0-7.703215196E-01-4.502975444E-01+
*       5.7194899103E-01               0
GRID*               2334               06.9361873609E-01-5.039667259E-01+
*       3.2766492998E-01               0
GRID*               2335               07.5220004566E-01-5.036051683E-01+
*       4.8899818373E-01               0
GRID*               2336               07.7712126956E-01-6.206081585E-01+
*       4.5330757030E-01               0
GRID*               2337               01.0992281768E+002.3108689840E-01+
*       3.9742185570E-01               0
GRID*               2338               03.4404807531E-011.0698309786E+00+
*       8.6618434332E-01               0
GRID*               2339               0-2.872766984E-01-9.237464405E-01+
*       -5.629239867E-01               0
GRID*               2340               0-3.390863814E-01-8.902669184E-01+
*       -6.701458263E-01               0
GRID*               2341               0-3.546675999E-01-8.571512507E-01+
*       -4.279879069E-01               0
GRID*               2342               0-2.383185124E-01-9.602914684E-01+
*       -4.508184756E-01               0
GRID*               2343               0-9.727439138E-02-9.052024031E-01+
*       -4.997957673E-01               0
GRID*               2344               0-6.971955612E-01-7.136362919E-01+
*       7.4890839248E-01               0
GRID*               2345               0-7.690991392E-01-7.892831356E-01+
*       8.4651837397E-01               0
GRID*               2346               0-6.507864026E-01-7.677053059E-01+
*       9.1001482201E-01               0
GRID*               2347               0-6.892758100E-01-6.649658257E-01+
*       9.2347627330E-01               0
GRID*               2348               08.4459862622E-012.8143091840E-01+
*       9.1085820886E-01               0
GRID*               2349               06.7471789208E-01-5.749580145E-01+
*       6.5783804661E-01               0
GRID*               2350               07.9913529611E-01-5.801833190E-01+
*       6.0793086450E-01               0
GRID*               2351               07.2566792168E-01-6.695357265E-01+
*       5.6128703510E-01               0
GRID*               2352               05.3205802234E-01-5.498406020E-01+
*       6.0433454204E-01               0
GRID*               2353               05.7220752229E-01-5.852810295E-01+
*       7.0464969441E-01               0
GRID*               2354               01.4356857953E-018.7449844482E-01+
*       -1.907986608E-01               0
GRID*               2355               03.1535399553E-028.9239972872E-01+
*       -1.805431405E-01               0
GRID*               2356               0-1.327008041E-029.0166515124E-01+
*       -7.814059557E-02               0
GRID*               2357               08.3901748488E-017.0645343610E-01+
*       -4.878914004E-01               0
GRID*               2358               04.0716375962E-013.5294222575E-01+
*       6.9221478767E-01               0
GRID*               2359               05.2440170341E-013.1727961080E-01+
*       8.1019514133E-01               0
GRID*               2360               0-2.107897425E-019.2118466031E-01+
*       7.3372754820E-01               0
GRID*               2361               0-3.511872388E-019.2722345141E-01+
*       7.6815163275E-01               0
GRID*               2362               0-2.671859369E-017.9940261251E-01+
*       8.0465580782E-01               0
GRID*               2363               0-2.129246217E-019.2463523396E-01+
*       8.9746788886E-01               0
GRID*               2364               01.0272692923E+004.1515320309E-01+
*       -1.952307896E-01               0
GRID*               2365               06.2246277236E-01-6.342197731E-01+
*       4.9752430228E-01               0
GRID*               2366               06.0819386481E-01-6.679538428E-01+
*       6.0467209626E-01               0
GRID*               2367               06.5089876008E-01-7.605031089E-01+
*       4.9998909398E-01               0
GRID*               2368               0-4.680081864E-017.6508380996E-01+
*       -7.887282523E-02               0
GRID*               2369               03.5471878507E-01-1.607254637E-01+
*       9.1835426962E-01               0
GRID*               2370               02.3674573264E-01-1.726645210E-01+
*       9.3360018416E-01               0
GRID*               2371               05.8388042682E-01-6.862602998E-01+
*       3.9300915126E-01               0
GRID*               2372               07.0031528565E-01-7.167592999E-01+
*       3.8870879031E-01               0
GRID*               2373               08.3725432785E-01-7.406511122E-01+
*       4.4354949890E-01               0
GRID*               2374               08.7936741496E-01-6.842429524E-01+
*       2.8991611232E-01               0
GRID*               2375               01.0681843999E+003.4590491603E-01+
*       -8.368841737E-02               0
GRID*               2376               01.0850711056E+00-2.303584645E-01+
*       8.6867072012E-02               0
GRID*               2377               07.5616293158E-01-4.028696788E-01+
*       2.7740389714E-01               0
GRID*               2378               06.2849824056E-01-4.734360468E-01+
*       1.9645606410E-01               0
GRID*               2379               07.1852298474E-01-2.914429525E-01+
*       1.0800933264E-01               0
GRID*               2380               0-1.895915795E-011.0794246039E+00+
*       8.9657776019E-01               0
GRID*               2381               0-2.954871023E-011.0739317174E+00+
*       8.4959936287E-01               0
GRID*               2382               0-2.767618396E-021.3180297646E-01+
*       9.1598684749E-01               0
GRID*               2383               05.4462568969E-01-5.389451265E-01+
*       3.5572232128E-01               0
GRID*               2384               04.5608591356E-01-5.829181055E-01+
*       7.0273806261E-01               0
GRID*               2385               0-1.416292712E-013.8621857894E-01+
*       9.2876570900E-01               0
GRID*               2386               07.1996641610E-01-2.655929030E-01+
*       -9.110584998E-02               0
GRID*               2387               0-1.115558852E-011.0532053391E+00+
*       6.7706319223E-01               0
GRID*               2388               07.4480148341E-01-1.710303212E-01+
*       -1.875514728E-01               0
GRID*               2389               0-9.429469569E-015.6763395028E-01+
*       4.0510365918E-01               0
GRID*               2390               07.1143558213E-01-3.518569277E-01+
*       2.6929005834E-02               0
GRID*               2391               08.0193605628E-01-3.793910101E-01+
*       -1.013467518E-01               0
GRID*               2392               01.7576635325E-013.6598948172E-01+
*       9.3822419615E-01               0
GRID*               2393               0-3.738338414E-01-7.346725493E-02+
*       -9.169681587E-01               0
GRID*               2394               01.5444679135E-01-8.436186774E-02+
*       -7.419904492E-01               0
GRID*               2395               02.6455256994E-01-5.482451498E-02+
*       -8.643743420E-01               0
GRID*               2396               01.7997132027E-013.8789988296E-02+
*       -7.619487350E-01               0
GRID*               2397               0-1.061453172E-011.1208054025E+00+
*       8.6473347421E-01               0
GRID*               2398               0-8.292227689E-01-7.237839753E-01+
*       -8.861308240E-01               0
GRID*               2399               0-1.929487762E-01-6.082037342E-01+
*       -7.020874690E-01               0
GRID*               2400               0-3.987663712E-011.1072483109E-01+
*       9.1974562858E-01               0
GRID*               2401               0-1.071588311E+00-3.413148503E-01+
*       6.1505928781E-01               0
GRID*               2402               0-2.211717484E-01-5.731385178E-01+
*       -8.099451465E-01               0
GRID*               2403               0-1.091610764E-01-5.389064969E-01+
*       -8.058918240E-01               0
GRID*               2404               0-1.351688136E-01-3.988829011E-01+
*       -7.169553709E-01               0
GRID*               2405               09.4541256358E-03-4.131866125E-01+
*       -6.206668340E-01               0
GRID*               2406               01.0496665610E-011.2566145323E-01+
*       -9.275066132E-01               0
GRID*               2407               01.0992325744E-017.7340781815E-02+
*       -9.471227207E-01               0
GRID*               2408               0-4.328836380E-024.4321750447E-02+
*       1.4242715092E+00               0
GRID*               2409               0-1.496206891E-025.3640529624E-01+
*       -8.022743275E-01               0
GRID*               2410               04.1645858937E-025.5236649165E-01+
*       -9.036615513E-01               0
GRID*               2411               0-3.059745515E-034.5152200302E-01+
*       -9.121563811E-01               0
GRID*               2412               0-8.943275194E-025.1974726067E-01+
*       -9.222149282E-01               0
GRID*               2413               0-7.752146932E-01-3.612028270E-01+
*       9.0819500569E-01               0
GRID*               2414               0-6.333478194E-01-6.304261897E-01+
*       -2.909773531E-01               0
GRID*               2415               0-6.723173731E-01-5.979142720E-01+
*       -4.266645833E-01               0
GRID*               2416               0-5.954562407E-01-6.777546013E-01+
*       -3.848121931E-01               0
GRID*               2417               0-3.782461631E-02-3.016195475E-01+
*       6.6014150718E-01               0
GRID*               2418               0-9.324610044E-02-2.645207742E-01+
*       8.0977727753E-01               0
GRID*               2419               01.4080572248E-02-2.403341460E-01+
*       7.8631321085E-01               0
GRID*               2420               05.6234180725E-03-5.553744440E-02+
*       -1.411926557E+00               0
GRID*               2421               0-8.732635290E-01-4.267599397E-01+
*       -9.224970578E-01               0
GRID*               2422               04.7697464081E-02-5.307318454E-02+
*       -1.122530840E+00               0
GRID*               2423               0-1.098472002E-01-3.647283071E-01+
*       7.3353506162E-01               0
GRID*               2424               07.1418498341E-011.8473795924E-01+
*       -8.998747421E-01               0
GRID*               2425               0-3.368570494E-018.8155712495E-01+
*       9.1894315060E-01               0
GRID*               2426               0-4.487436750E-018.8761882812E-01+
*       9.1285594648E-01               0
GRID*               2427               0-4.227271031E-017.9812045807E-01+
*       9.2211476340E-01               0
GRID*               2428               04.7416932246E-01-2.422602009E-01+
*       -9.150023271E-01               0
GRID*               2429               04.8742550115E-015.0918668833E-01+
*       -5.851799507E-01               0
GRID*               2430               07.0817653815E-013.0193299249E-01+
*       -9.011594433E-01               0
GRID*               2431               0-1.085132778E+00-2.120872716E-01+
*       -4.782575140E-01               0
GRID*               2432               0-9.397381302E-02-9.492336919E-01+
*       9.2517686699E-01               0
GRID*               2433               0-4.106553909E-01-9.939280455E-02+
*       6.4132235343E-01               0
GRID*               2434               07.6478564591E-028.8310583399E-01+
*       -2.832603635E-01               0
GRID*               2435               02.0578845448E-019.7333852580E-01+
*       -2.845838960E-01               0
GRID*               2436               01.6106416434E-018.9811595616E-01+
*       -3.806960364E-01               0
GRID*               2437               0-2.216657321E-02-1.026501320E+00+
*       9.0824164843E-01               0
GRID*               2438               01.6962437158E-02-1.118151918E+00+
*       7.6697700759E-01               0
GRID*               2439               02.6558624311E-018.3305664068E-01+
*       -2.665855407E-01               0
GRID*               2440               01.4499321125E-01-8.839339953E-01+
*       9.0349808548E-01               0
GRID*               2441               0-8.041132089E-01-1.079920691E-01+
*       -9.127934321E-01               0
GRID*               2442               0-2.661419196E-01-8.441028779E-01+
*       2.8325144238E-01               0
GRID*               2443               0-5.214297003E-02-1.120723087E+00+
*       -3.633255229E-01               0
GRID*               2444               0-4.236412011E-01-8.217186173E-01+
*       3.7811868914E-01               0
GRID*               2445               08.1050954036E-02-1.619278062E-01+
*       9.1680773203E-01               0
GRID*               2446               02.8713966650E-03-1.306253454E-01+
*       9.4818097363E-01               0
GRID*               2447               06.7149839643E-01-6.004532123E-01+
*       3.9301360187E-01               0
GRID*               2448               06.1072975494E-01-6.280643630E-01+
*       2.8518642965E-01               0
GRID*               2449               07.4243031085E-01-6.534254710E-01+
*       2.8454586652E-01               0
GRID*               2450               08.5634989548E-011.6313373870E-01+
*       -2.716325910E-01               0
GRID*               2451               07.3421425337E-012.6123882949E-01+
*       -2.526621882E-01               0
GRID*               2452               04.5682793148E-01-5.909564396E-01+
*       9.2673677352E-01               0
GRID*               2453               0-7.146891620E-013.4247850138E-01+
*       6.0335607920E-01               0
GRID*               2454               01.0275002105E+00-4.592888229E-01+
*       2.1020985472E-03               0
GRID*               2455               09.9042100405E-01-5.243611483E-01+
*       1.0039845712E-01               0
GRID*               2456               02.4616920959E-01-2.559830761E-01+
*       -8.062790554E-01               0
GRID*               2457               02.6561162589E-01-1.396118180E-01+
*       -7.954108473E-01               0
GRID*               2458               01.1584271131E-01-2.467901163E-01+
*       -7.795045641E-01               0
GRID*               2459               0-3.001289239E-011.2549067650E-01+
*       9.2095210709E-01               0
GRID*               2460               06.2664302448E-02-1.105952239E-02+
*       -1.057419737E+00               0
GRID*               2461               0-4.872467315E-013.0680989506E-01+
*       7.6086641090E-01               0
GRID*               2462               07.3560511733E-02-1.453354050E-01+
*       -8.216495302E-01               0
GRID*               2463               0-7.014071493E-012.9392480989E-01+
*       7.1879066870E-01               0
GRID*               2464               0-1.490205090E-01-3.561232881E-01+
*       6.2851299647E-01               0
GRID*               2465               04.3043635403E-01-9.859758234E-02+
*       -9.298868909E-01               0
GRID*               2466               03.3573420937E-01-1.658111096E-01+
*       -9.184141115E-01               0
GRID*               2467               02.2863993795E-011.8238820223E-01+
*       9.3303450098E-01               0
GRID*               2468               01.4086104171E-011.3421623282E-01+
*       9.2133901703E-01               0
GRID*               2469               01.7998515660E-018.5311240168E-02+
*       9.2436024057E-01               0
GRID*               2470               0-1.162544909E-01-8.164540245E-02+
*       9.3926873214E-01               0
GRID*               2471               0-6.293069861E-01-1.618841754E-01+
*       -8.226240859E-01               0
GRID*               2472               0-3.753939901E-01-9.933519223E-02+
*       -6.423581693E-01               0
GRID*               2473               0-9.892535211E-014.7880681675E-01+
*       -1.979134829E-01               0
GRID*               2474               07.0144575836E-016.9193199422E-01+
*       -8.320151201E-01               0
GRID*               2475               06.2575429992E-017.0182162047E-01+
*       -8.965569656E-01               0
GRID*               2476               0-3.718360100E-01-1.860260609E-01+
*       -7.107940588E-01               0
GRID*               2477               0-4.930317512E-01-2.183339345E-01+
*       -8.159176831E-01               0
GRID*               2478               0-7.479046433E-029.0048817997E-01+
*       -9.100067805E-01               0
GRID*               2479               0-5.230021287E-01-2.118331130E-02+
*       7.1560201575E-01               0
GRID*               2480               01.1381249738E-01-3.600981434E-01+
*       -7.025054230E-01               0
GRID*               2481               01.2745841743E-01-4.650901769E-01+
*       -7.254174334E-01               0
GRID*               2482               02.0143321051E-01-4.589931260E-01+
*       -8.308810893E-01               0
GRID*               2483               02.2690695887E-01-3.614609719E-01+
*       -6.749437370E-01               0
GRID*               2484               0-2.904255640E-019.9495024450E-01+
*       -8.909231489E-01               0
GRID*               2485               0-8.857365887E-012.9975568195E-02+
*       -3.773891360E-01               0
GRID*               2486               08.5122416573E-01-4.935781594E-01+
*       5.2671660480E-01               0
GRID*               2487               07.8063036172E-01-2.706680927E-01+
*       5.5175225085E-01               0
GRID*               2488               07.0232422873E-01-3.941901119E-01+
*       4.0307427449E-01               0
GRID*               2489               08.5408326667E-01-3.304513393E-01+
*       4.0905990269E-01               0
GRID*               2490               09.1132914096E-01-5.925956084E-01+
*       5.6517431391E-01               0
GRID*               2491               08.4593148247E-01-7.033406069E-01+
*       5.5317396797E-01               0
GRID*               2492               0-8.045395867E-014.1830234478E-01+
*       -2.556245298E-01               0
GRID*               2493               0-8.358508901E-013.4226272136E-01+
*       -1.050627932E-01               0
GRID*               2494               0-8.470994134E-011.9660694580E-01+
*       7.9199551836E-02               0
GRID*               2495               05.7239667870E-015.2709459229E-01+
*       -2.558714312E-01               0
GRID*               2496               07.1927854144E-015.1442500928E-01+
*       -1.610069995E-01               0
GRID*               2497               07.1373288902E-013.5224644939E-01+
*       -3.665081956E-01               0
GRID*               2498               08.1329895442E-013.7073287238E-01+
*       -2.807378415E-01               0
GRID*               2499               0-3.811407748E-01-3.822360563E-01+
*       7.1490779583E-01               0
GRID*               2500               02.5915709275E-01-5.334662123E-01+
*       -7.466450044E-01               0
GRID*               2501               01.4941635637E-01-5.786875341E-01+
*       -7.303933710E-01               0
GRID*               2502               07.6957082431E-012.9895770869E-01+
*       5.2230110146E-01               0
GRID*               2503               0-4.003660111E-019.4020781421E-01+
*       -8.875947348E-01               0
GRID*               2504               0-2.926979151E-018.8209142386E-01+
*       -9.036694661E-01               0
GRID*               2505               01.0047633536E-011.7623116152E-01+
*       -9.527213037E-01               0
GRID*               2506               03.4827314429E-01-8.833463529E-01+
*       3.1354430015E-01               0
GRID*               2507               03.2813356696E-01-7.589986998E-01+
*       4.2469731301E-01               0
GRID*               2508               04.0672250204E-01-9.115962062E-01+
*       4.5068695409E-01               0
GRID*               2509               04.4999020602E-01-7.738796622E-01+
*       3.9764661767E-01               0
GRID*               2510               05.6842946542E-022.4973049247E-01+
*       6.1270140357E-01               0
GRID*               2511               0-5.904960934E-031.9128817613E-01+
*       6.7314646313E-01               0
GRID*               2512               05.1461357706E-01-8.503263721E-01+
*       2.7619349968E-01               0
GRID*               2513               04.5800430500E-01-9.358015709E-01+
*       3.4796130558E-01               0
GRID*               2514               04.3111025993E-01-8.915978030E-01+
*       1.9918047277E-01               0
GRID*               2515               01.1713869548E-012.3296249545E-01+
*       7.0491326343E-01               0
GRID*               2516               02.3862308854E-01-1.708453144E-01+
*       5.6016487314E-01               0
GRID*               2517               07.5867426267E-022.8692578208E-01+
*       -9.431008219E-01               0
GRID*               2518               06.9800711757E-014.4304863774E-01+
*       -4.961059556E-01               0
GRID*               2519               03.6812666215E-01-7.301066529E-01+
*       6.5791370132E-01               0
GRID*               2520               04.4101291145E-01-8.044923679E-01+
*       5.7706497113E-01               0
GRID*               2521               04.8641723751E-01-6.595161730E-01+
*       5.9166655059E-01               0
GRID*               2522               04.9359292836E-01-7.448370997E-01+
*       7.0190790799E-01               0
GRID*               2523               05.5580691678E-01-6.048336030E-01+
*       9.2318728139E-01               0
GRID*               2524               0-6.693187193E-016.0463841178E-01+
*       -1.044342180E-01               0
GRID*               2525               0-7.530279381E-014.7275239857E-01+
*       -1.047501782E-01               0
GRID*               2526               05.4709170023E-024.4857940110E-02+
*       -1.172467528E+00               0
GRID*               2527               02.4149578321E-01-7.150433176E-01+
*       3.6380479715E-01               0
GRID*               2528               03.8245325010E-01-6.766659624E-01+
*       2.7473944681E-01               0
GRID*               2529               03.8673252371E-01-7.829308632E-01+
*       2.8935866110E-01               0
GRID*               2530               03.2315634622E-01-7.033256330E-01+
*       1.8074255874E-01               0
GRID*               2531               04.5757747937E-01-6.297514997E-01+
*       2.0083585666E-01               0
GRID*               2532               05.0905118525E-01-7.130133625E-01+
*       2.8436874221E-01               0
GRID*               2533               04.5486552819E-01-7.546973584E-01+
*       1.9524633792E-01               0
GRID*               2534               03.2549278320E-01-6.008732531E-01+
*       6.1535887658E-01               0
GRID*               2535               03.0526942311E-01-5.525712256E-01+
*       7.4033199265E-01               0
GRID*               2536               06.7610481903E-02-5.519372889E-04+
*       1.0189377864E+00               0
GRID*               2537               0-1.649678807E-032.2129841850E-02+
*       -1.434399473E+00               0
GRID*               2538               0-1.223983728E-01-1.569161348E-01+
*       -9.427783672E-01               0
GRID*               2539               03.9474967391E-017.9695583276E-01+
*       -4.771146851E-01               0
GRID*               2540               0-2.522108774E-01-1.158062463E-01+
*       -9.323813965E-01               0
GRID*               2541               0-6.425142641E-023.2586679236E-02+
*       1.1791684612E+00               0
GRID*               2542               09.2889533071E-016.0072470305E-01+
*       -8.744610855E-01               0
GRID*               2543               07.6964023145E-015.7897195846E-01+
*       -8.012731169E-01               0
GRID*               2544               03.1519869268E-01-8.286680295E-01+
*       -1.485247141E-03               0
GRID*               2545               02.3399207909E-01-8.608577267E-01+
*       -1.147365565E-01               0
GRID*               2546               02.4273721002E-01-7.335952459E-01+
*       -1.266990451E-02               0
GRID*               2547               07.6699672010E-02-9.769101275E-01+
*       -1.268110490E-02               0
GRID*               2548               01.8834332796E-01-9.741511128E-01+
*       9.6838728677E-02               0
GRID*               2549               09.1319710018E-02-8.779199386E-01+
*       -1.090913165E-01               0
GRID*               2550               01.9105557456E-01-1.014105601E+00+
*       -1.081452049E-01               0
GRID*               2551               0-2.431111341E-012.2578126423E-01+
*       -9.258110052E-01               0
GRID*               2552               05.7617168258E-01-8.160561310E-01+
*       3.9103702581E-01               0
GRID*               2553               0-1.021897876E+00-4.448992030E-01+
*       -2.236320197E-01               0
GRID*               2554               02.7627440482E-021.6872456229E-01+
*       -9.058630322E-01               0
GRID*               2555               0-1.733990226E-021.2063404325E-01+
*       -9.296222078E-01               0
GRID*               2556               0-1.003341455E+004.7094413530E-01+
*       -3.552240970E-02               0
GRID*               2557               0-2.963845346E-022.2979153692E-01+
*       -9.266615788E-01               0
GRID*               2558               0-2.849218977E-01-8.377368370E-02+
*       -7.093305675E-01               0
GRID*               2559               0-1.679057570E-01-1.594939129E-01+
*       -6.919495044E-01               0
GRID*               2560               0-2.342792212E-026.2559960584E-01+
*       -7.044088707E-01               0
GRID*               2561               02.5750528153E-01-9.560666009E-01+
*       4.0465010378E-01               0
GRID*               2562               03.8013131250E-01-1.042005571E+00+
*       3.8937317792E-01               0
GRID*               2563               0-1.488418330E-025.6914556916E-02+
*       -1.136339851E+00               0
GRID*               2564               06.4133987899E-018.1828412772E-01+
*       -9.159102877E-01               0
GRID*               2565               0-5.541585002E-02-7.487454919E-01+
*       3.4216872982E-01               0
GRID*               2566               0-5.707641028E-019.6834124847E-01+
*       -2.829823866E-01               0
GRID*               2567               02.4849686002E-01-8.890022343E-01+
*       5.2698188449E-01               0
GRID*               2568               01.7449864032E-01-2.530064906E-01+
*       -6.900579716E-01               0
GRID*               2569               0-1.017087918E+004.1372395925E-01+
*       9.8963534498E-02               0
GRID*               2570               0-6.677328196E-02-1.236833751E-02+
*       1.3604366313E+00               0
GRID*               2571               0-8.325120203E-017.3759025213E-01+
*       8.1778270377E-02               0
GRID*               2572               0-7.291482075E-012.7464294179E-01+
*       3.5319833609E-01               0
GRID*               2573               0-1.061123223E+003.7680943273E-01+
*       2.4630032658E-02               0
GRID*               2574               0-1.117720828E+008.6425640277E-02+
*       1.8807425655E-01               0
GRID*               2575               0-7.752521767E-02-1.108926681E+00+
*       5.8347447651E-01               0
GRID*               2576               01.5833288902E-01-9.975282192E-01+
*       5.4145359876E-01               0
GRID*               2577               02.5207789200E-01-1.094659527E+00+
*       4.3542113210E-01               0
GRID*               2578               01.4441370899E-01-1.115786069E+00+
*       4.5113133827E-01               0
GRID*               2579               01.1213318299E-01-9.772364884E-01+
*       3.8343492544E-01               0
GRID*               2580               0-2.109223348E-01-1.836261735E-01+
*       -9.301547217E-01               0
GRID*               2581               0-6.200569326E-01-6.776138697E-02+
*       -9.024519220E-01               0
GRID*               2582               05.1393073522E-01-7.440110124E-01+
*       4.7563716053E-01               0
GRID*               2583               04.0012839410E-01-6.985642551E-01+
*       5.0591284427E-01               0
GRID*               2584               0-1.339536167E-015.2343645007E-01+
*       7.1903148773E-01               0
GRID*               2585               0-2.732743745E-014.7647200392E-01+
*       8.0558185284E-01               0
GRID*               2586               0-9.776469947E-01-2.406265245E-01+
*       1.5553944647E-01               0
GRID*               2587               0-1.068059822E+00-2.799365925E-01+
*       4.5791991715E-02               0
GRID*               2588               0-1.065115095E+00-2.958653147E-01+
*       1.9401212154E-01               0
GRID*               2589               0-1.607699304E-016.2889170854E-01+
*       7.2145122499E-01               0
GRID*               2590               0-2.860861372E-015.9010348660E-01+
*       7.2996753162E-01               0
GRID*               2591               02.9890315658E-01-2.874623930E-01+
*       6.0700237448E-01               0
GRID*               2592               01.9860085163E-01-3.523480272E-01+
*       5.8956710488E-01               0
GRID*               2593               01.1831815541E-01-2.673136143E-01+
*       -9.377898604E-01               0
GRID*               2594               0-2.434727913E-03-2.025384677E-01+
*       -9.129380198E-01               0
GRID*               2595               0-8.991485029E-02-2.310826152E-01+
*       -9.421147808E-01               0
GRID*               2596               0-8.085133387E-017.6185584284E-01+
*       8.2846664510E-01               0
GRID*               2597               09.8511987363E-011.5379570458E-01+
*       1.7110241677E-01               0
GRID*               2598               09.9157411198E-019.5091907239E-02+
*       3.1065288965E-01               0
GRID*               2599               0-1.113861279E+00-9.614805689E-02+
*       8.5250505298E-02               0
GRID*               2600               01.0787966118E+002.7351255608E-01+
*       1.7672215617E-01               0
GRID*               2601               02.1574887283E-01-7.596639482E-01+
*       -4.831729260E-01               0
GRID*               2602               06.6212090606E-02-8.743120987E-01+
*       -3.668086092E-01               0
GRID*               2603               01.8709262777E-01-8.282706285E-01+
*       -3.631271335E-01               0
GRID*               2604               0-3.350322644E-011.0609890352E+00+
*       -2.131348174E-01               0
GRID*               2605               02.2461151027E-011.6472972400E-01+
*       7.0790345932E-01               0
GRID*               2606               01.4269753722E-011.1073367938E+00+
*       -3.891207443E-01               0
GRID*               2607               01.9607448736E-013.7740807122E-01+
*       7.7969120009E-01               0
GRID*               2608               03.2561642930E-01-2.554193220E-01+
*       7.0169073170E-01               0
GRID*               2609               03.7325483778E-01-2.179647673E-01+
*       8.1565979567E-01               0
GRID*               2610               0-1.126158905E+00-1.454568230E-02+
*       1.8268399682E-01               0
GRID*               2611               0-1.121991319E+00-1.035297210E-01+
*       2.7818004877E-01               0
GRID*               2612               02.4543752172E-011.1735013747E-01+
*       9.3607503680E-01               0
GRID*               2613               01.3813306097E-011.4920492087E-02+
*       9.4417108607E-01               0
GRID*               2614               02.4088148070E-01-1.463659330E-01+
*       6.8220824431E-01               0
GRID*               2615               01.0575769828E-02-5.530666550E-02+
*       1.2839073422E+00               0
GRID*               2616               0-9.803851119E-015.0044854283E-01+
*       9.1190741526E-01               0
GRID*               2617               0-9.322496630E-014.2186739771E-01+
*       9.0496612629E-01               0
GRID*               2618               0-5.768315248E-01-5.940242700E-01+
*       -5.166557325E-01               0
GRID*               2619               0-1.087478866E+00-2.365522137E-01+
*       3.1000639453E-01               0
GRID*               2620               01.0662329368E+003.1502366799E-01+
*       -4.573777826E-01               0
GRID*               2621               01.1111171471E+001.5339807673E-01+
*       -4.660577665E-01               0
GRID*               2622               01.0731477848E+003.2179308206E-01+
*       -5.810543357E-01               0
GRID*               2623               01.7982068526E-01-8.686570444E-01+
*       3.8621820432E-01               0
GRID*               2624               02.5069318954E-01-8.332062357E-01+
*       2.8860373675E-01               0
GRID*               2625               02.0157932550E-01-7.576154743E-01+
*       1.7639892485E-01               0
GRID*               2626               08.5433133562E-013.1995943690E-01+
*       -6.140589427E-01               0
GRID*               2627               08.2118894325E-011.7822879676E-01+
*       -5.950243203E-01               0
GRID*               2628               07.0780565573E-013.4687064574E-01+
*       -7.130127929E-01               0
GRID*               2629               08.6901377769E-011.5758012769E-01+
*       -7.075288180E-01               0
GRID*               2630               07.6492883723E-019.6269395778E-02+
*       -6.942641549E-01               0
GRID*               2631               07.8315730098E-012.2207266734E-01+
*       -8.036495950E-01               0
GRID*               2632               0-8.973213596E-011.7363601380E-01+
*       9.4050007251E-01               0
GRID*               2633               08.7881043597E-01-7.641102372E-02+
*       -6.631489134E-01               0
GRID*               2634               08.9841481629E-014.0671581638E-02+
*       -6.984330622E-01               0
GRID*               2635               07.5327030175E-011.1518785270E-02+
*       -5.831919133E-01               0
GRID*               2636               0-8.880460576E-014.3836983390E-01+
*       6.8679732042E-01               0
GRID*               2637               0-9.053929294E-016.6291785947E-01+
*       8.6913401293E-01               0
GRID*               2638               08.2519566828E-01-8.671032943E-02+
*       -2.560568075E-01               0
GRID*               2639               07.3001726873E-021.6560216922E-02+
*       7.7613733342E-01               0
GRID*               2640               01.6436543314E-017.9528489822E-02+
*       6.8291720467E-01               0
GRID*               2641               01.6000350777E-01-2.401704937E-02+
*       6.5741471494E-01               0
GRID*               2642               07.8437069178E-021.3978545491E-01+
*       7.0706074993E-01               0
GRID*               2643               08.1237932857E-01-1.115941290E-01+
*       -5.325500727E-01               0
GRID*               2644               09.8990981651E-01-1.408079539E-01+
*       -5.842993287E-01               0
GRID*               2645               0-5.559748380E-01-6.701683109E-01+
*       -6.010711269E-01               0
GRID*               2646               0-5.112998981E-01-8.048856480E-01+
*       -5.443572560E-01               0
GRID*               2647               0-6.124832564E-01-7.666221340E-01+
*       -6.461941236E-01               0
GRID*               2648               0-4.518005538E-01-8.620960929E-01+
*       -6.372199840E-01               0
GRID*               2649               0-4.299141801E-01-7.205473941E-01+
*       -5.699306071E-01               0
GRID*               2650               0-4.922998702E-01-6.993570198E-01+
*       -4.699238630E-01               0
GRID*               2651               09.4723462094E-012.3067694608E-01+
*       -2.893788820E-01               0
GRID*               2652               09.3062802760E-013.7305920208E-01+
*       -3.016309851E-01               0
GRID*               2653               0-5.807144983E-01-5.332157898E-01+
*       -6.896295985E-01               0
GRID*               2654               0-7.545160516E-01-6.203599149E-01+
*       -5.393240616E-01               0
GRID*               2655               0-1.078912857E+002.9901671939E-01+
*       1.0623759705E-01               0
GRID*               2656               0-6.822473990E-011.4646505171E-01+
*       7.0663200325E-01               0
GRID*               2657               0-6.469068705E-016.9471019033E-03+
*       7.0933913682E-01               0
GRID*               2658               05.5221101013E-016.9701725813E-02+
*       -8.051335817E-01               0
GRID*               2659               05.1588511624E-016.0254792103E-02+
*       -6.974038270E-01               0
GRID*               2660               08.1773347095E-01-1.995658802E-01+
*       3.6956693914E-01               0
GRID*               2661               08.7170016940E-01-8.323126526E-02+
*       3.8735415404E-01               0
GRID*               2662               08.1931098407E-01-1.397087271E-01+
*       4.8253315485E-01               0
GRID*               2663               07.8177248570E-01-2.883328358E-01+
*       2.9699998517E-01               0
GRID*               2664               01.7071227480E-01-4.565876979E-01+
*       6.5036255582E-01               0
GRID*               2665               02.2778252717E-01-3.483273544E-01+
*       6.9845283289E-01               0
GRID*               2666               06.7009347704E-017.7056212976E-01+
*       -2.440242698E-01               0
GRID*               2667               02.5975620461E-018.7552005157E-01+
*       -5.066543451E-01               0
GRID*               2668               03.7131857227E-019.2047040890E-01+
*       -4.957016848E-01               0
GRID*               2669               03.5784031117E-018.5475211091E-01+
*       -5.800501093E-01               0
GRID*               2670               03.5283593700E-018.3578254831E-01+
*       3.9762641476E-01               0
GRID*               2671               02.8925053850E-028.3521995210E-01+
*       -5.310347319E-01               0
GRID*               2672               08.7703008621E-029.8687862963E-01+
*       -4.717427795E-01               0
GRID*               2673               02.9241355947E-018.6711194732E-01+
*       2.8507297822E-01               0
GRID*               2674               01.9904544600E-019.0660426537E-01+
*       3.1867664434E-01               0
GRID*               2675               08.7754516594E-011.2301831862E-01+
*       -3.941617850E-01               0
GRID*               2676               09.1500962450E-01-7.748152240E-03+
*       -3.387699424E-01               0
GRID*               2677               08.6361878910E-01-1.147461555E-01+
*       -3.939893699E-01               0
GRID*               2678               04.1475963021E-015.5816622496E-01+
*       -7.234752363E-01               0
GRID*               2679               0-1.801198874E-01-2.081274028E-01+
*       -8.250337689E-01               0
GRID*               2680               0-2.085081396E-01-2.998493142E-01+
*       -9.281243115E-01               0
GRID*               2681               0-3.274613128E-01-2.575452310E-01+
*       -8.156938613E-01               0
GRID*               2682               0-2.996442161E-01-2.262570377E-01+
*       -9.303365603E-01               0
GRID*               2683               03.6676707936E-02-3.885118847E-02+
*       -9.590424108E-01               0
GRID*               2684               01.6934374074E-01-7.485661876E-02+
*       -8.861219028E-01               0
GRID*               2685               08.2007487947E-021.8024698053E-02+
*       1.2101807844E+00               0
GRID*               2686               0-1.548819858E-018.1412309328E-02+
*       9.2735436682E-01               0
GRID*               2687               0-6.506880334E-02-4.298860811E-02+
*       1.1975434738E+00               0
GRID*               2688               06.5478969581E-018.7907370714E-01+
*       -1.888674632E-01               0
GRID*               2689               07.7438593452E-017.7895285753E-01+
*       -1.653271813E-01               0
GRID*               2690               0-1.155045657E-01-7.605652458E-01+
*       5.4610904415E-01               0
GRID*               2691               04.1086065810E-02-8.656263810E-01+
*       3.6525834509E-01               0
GRID*               2692               0-2.405162556E-015.5725076102E-02+
*       9.4135611306E-01               0
GRID*               2693               09.8951307334E-02-9.073632230E-01+
*       4.8652240476E-01               0
GRID*               2694               03.3500049393E-029.0264799670E-01+
*       9.2957138725E-02               0
GRID*               2695               0-2.079489096E-029.1833092774E-01+
*       2.0951760684E-01               0
GRID*               2696               0-1.142239707E-018.9246871126E-01+
*       9.0347719586E-02               0
GRID*               2697               05.8779314987E-015.4027984722E-01+
*       -5.361325878E-02               0
GRID*               2698               07.4669374668E-018.2144986981E-01+
*       9.0442364926E-01               0
GRID*               2699               0-3.759757523E-01-3.902001723E-01+
*       -8.167379935E-01               0
GRID*               2700               0-3.896586203E-01-2.605089880E-01+
*       -9.253045936E-01               0
GRID*               2701               0-3.134388018E-01-3.490625557E-01+
*       -9.232687610E-01               0
GRID*               2702               0-2.642540254E-01-1.410127619E-01+
*       -8.286229873E-01               0
GRID*               2703               0-2.704499303E-01-1.993864855E-01+
*       -7.462728499E-01               0
GRID*               2704               0-1.936466322E-011.9925854950E-02+
*       9.0895544821E-01               0
GRID*               2705               05.6786362613E-02-6.227059742E-01+
*       -7.069921817E-01               0
GRID*               2706               0-2.443958885E-01-3.375276205E-01+
*       -7.964355475E-01               0
GRID*               2707               0-9.006608891E-02-2.764787832E-01+
*       -8.209023352E-01               0
GRID*               2708               0-1.219762915E-01-3.511600417E-01+
*       -9.179918204E-01               0
GRID*               2709               07.8114552518E-011.1182840487E-01+
*       1.2741563366E-01               0
GRID*               2710               08.1234778425E-011.3196628987E-01+
*       -9.367294120E-01               0
GRID*               2711               0-4.648748583E-01-3.172688925E-01+
*       -8.090881214E-01               0
GRID*               2712               0-4.768716724E-01-3.017892061E-01+
*       -9.250946272E-01               0
GRID*               2713               0-4.003732087E-01-1.646908525E-01+
*       -9.103216443E-01               0
GRID*               2714               0-3.359312736E-01-1.505001555E-01+
*       -8.762803063E-01               0
GRID*               2715               0-5.477124300E-01-5.327495472E-01+
*       5.7645613536E-01               0
GRID*               2716               01.1231784720E+009.7843859074E-02+
*       1.8543074239E-01               0
GRID*               2717               02.2545106997E-01-7.698398640E-01+
*       -5.882549328E-01               0
GRID*               2718               03.9615478428E-01-5.748382274E-01+
*       -6.901213010E-01               0
GRID*               2719               01.9496504416E-01-9.007888230E-02+
*       9.3833691975E-01               0
GRID*               2720               08.0801994715E-016.7492904630E-02+
*       -8.127550472E-01               0
GRID*               2721               09.0219613921E-011.4114726167E-01+
*       -8.203400651E-01               0
GRID*               2722               0-4.253318043E-012.1154164469E-01+
*       7.4757823843E-01               0
GRID*               2723               0-3.489063965E-013.7757247171E-01+
*       7.3689606329E-01               0
GRID*               2724               0-7.652663217E-01-4.510479834E-01+
*       -1.885117247E-01               0
GRID*               2725               09.8374599109E-011.2116397615E-01+
*       -7.029490390E-01               0
GRID*               2726               01.7281123627E-01-4.957875290E-01+
*       -9.180094429E-01               0
GRID*               2727               08.4754731834E-012.6921516883E-01+
*       -7.171794934E-01               0
GRID*               2728               09.6101422838E-012.6736959332E-01+
*       -6.705997829E-01               0
GRID*               2729               0-1.470722706E-01-2.691932095E-03+
*       -6.589690351E-01               0
GRID*               2730               0-7.310724380E-026.1596155275E-02+
*       -7.135523666E-01               0
GRID*               2731               0-2.086631628E-01-7.113861487E-02+
*       -7.877954572E-01               0
GRID*               2732               0-1.265097280E-011.1800265432E-01+
*       -6.785803567E-01               0
GRID*               2733               0-5.599957068E-019.5911977261E-01+
*       1.1548689652E-01               0
GRID*               2734               01.0068394784E+003.8212207818E-01+
*       -7.488015540E-01               0
GRID*               2735               08.2404876412E-013.5335862144E-01+
*       -8.126214483E-01               0
GRID*               2736               09.3918876331E-012.8198930206E-01+
*       -8.119282670E-01               0
GRID*               2737               09.9544655692E-011.9075642519E-01+
*       -7.923593520E-01               0
GRID*               2738               01.5089413551E-011.8772757831E-01+
*       9.3367568725E-01               0
GRID*               2739               0-1.093030046E+00-1.302975944E-01+
*       -1.876545251E-01               0
GRID*               2740               05.9960781457E-015.3600446108E-01+
*       -5.794897595E-01               0
GRID*               2741               0-6.029899633E-013.6883593641E-02+
*       -9.256824407E-01               0
GRID*               2742               0-1.550650388E-01-8.602636511E-01+
*       1.9159245445E-01               0
GRID*               2743               0-5.113085431E-02-8.689892891E-01+
*       2.8408114889E-01               0
GRID*               2744               0-1.481605839E-01-8.462123060E-01+
*       3.5408841265E-01               0
GRID*               2745               01.0228264483E+004.2050248673E-01+
*       -6.049167950E-01               0
GRID*               2746               08.9959289159E-014.2302244909E-01+
*       -6.995191842E-01               0
GRID*               2747               0-7.140075002E-01-4.007990606E-01+
*       8.6885422836E-02               0
GRID*               2748               0-7.754785078E-01-4.602938977E-01+
*       2.1150618923E-03               0
GRID*               2749               0-7.919465249E-01-4.051474342E-01+
*       1.7546442038E-01               0
GRID*               2750               0-8.261192113E-01-3.632680050E-01+
*       6.8807086790E-03               0
GRID*               2751               0-7.752051493E-01-5.213287512E-01+
*       9.5434196130E-02               0
GRID*               2752               0-8.330830446E-01-3.148144321E-01+
*       1.0409713727E-01               0
GRID*               2753               06.1480897168E-013.8865934218E-01+
*       -8.150219702E-01               0
GRID*               2754               0-3.741214211E-017.7980891789E-01+
*       -2.808082512E-01               0
GRID*               2755               0-1.890132567E-018.0415221190E-01+
*       -2.874339012E-01               0
GRID*               2756               0-5.868006441E-016.5854786548E-01+
*       -2.312928250E-01               0
GRID*               2757               0-3.071172132E-01-9.440098536E-01+
*       3.1977636380E-01               0
GRID*               2758               0-3.908844178E-01-9.052170810E-01+
*       4.1618990183E-01               0
GRID*               2759               05.8410754426E-02-8.355368109E-01+
*       -6.989224636E-01               0
GRID*               2760               01.2621280318E-01-8.964418667E-01+
*       -5.768977440E-01               0
GRID*               2761               0-2.815115912E-01-8.201131151E-01+
*       5.8116760686E-01               0
GRID*               2762               0-3.585689024E-01-8.233325109E-01+
*       5.0673783000E-01               0
GRID*               2763               0-2.967132396E-01-9.506439064E-01+
*       4.9299546912E-01               0
GRID*               2764               0-1.589742044E-01-9.789133148E-01+
*       5.9967109160E-01               0
GRID*               2765               02.6930462643E-01-9.004208103E-01+
*       -5.213566169E-01               0
GRID*               2766               03.2595808467E-01-8.110815069E-01+
*       -4.574855666E-01               0
GRID*               2767               03.8549237146E-01-7.129688061E-01+
*       -5.517496744E-01               0
GRID*               2768               03.2524093983E-01-7.413189301E-01+
*       -6.514030177E-01               0
GRID*               2769               03.4691825499E-01-8.250776235E-01+
*       -5.691832132E-01               0
GRID*               2770               03.1963735372E-01-8.641307736E-01+
*       -6.682653001E-01               0
GRID*               2771               03.7156285528E-011.4376842531E-01+
*       7.2139206806E-01               0
GRID*               2772               0-2.000227751E-01-1.067278808E+00+
*       9.0310860175E-01               0
GRID*               2773               0-1.891117560E-01-9.613285160E-01+
*       3.8521070438E-01               0
GRID*               2774               0-5.670076654E-01-7.559606794E-01+
*       5.2048246534E-01               0
GRID*               2775               0-5.889118352E-01-8.454171101E-01+
*       4.2399916841E-01               0
GRID*               2776               0-6.334897215E-01-7.647032900E-01+
*       6.6626952602E-01               0
GRID*               2777               0-7.370560543E-01-7.997880994E-01+
*       3.5478092982E-01               0
GRID*               2778               0-7.113694292E-01-8.042771988E-01+
*       2.3560748971E-01               0
GRID*               2779               0-2.032883513E-01-7.517159616E-01+
*       -2.239748186E-01               0
GRID*               2780               0-8.049012501E-02-7.399544523E-01+
*       -2.961231067E-01               0
GRID*               2781               0-6.010840498E-02-8.918640940E-01+
*       -1.064491884E-01               0
GRID*               2782               0-2.178845211E-01-8.584165199E-01+
*       -2.427886896E-01               0
GRID*               2783               0-1.175031156E-019.8681789334E-01+
*       -2.932349233E-01               0
GRID*               2784               0-1.216005437E-018.6384676277E-01+
*       -3.909160542E-01               0
GRID*               2785               0-2.734672415E-019.3859535834E-01+
*       -2.935455281E-01               0
GRID*               2786               0-5.183245705E-01-7.475758323E-01+
*       4.0736596000E-01               0
GRID*               2787               0-5.786714838E-01-8.066547552E-01+
*       2.9567377082E-01               0
GRID*               2788               04.6660211770E-013.9775885834E-01+
*       -7.115135534E-01               0
GRID*               2789               0-1.539125657E-011.5967054034E-01+
*       6.8874052460E-01               0
GRID*               2790               0-6.624579150E-022.6363973338E-01+
*       5.9822280012E-01               0
GRID*               2791               0-5.760327785E-01-7.677124361E-01+
*       -4.533680355E-01               0
GRID*               2792               08.4313721101E-01-2.051866738E-01+
*       -2.948608331E-01               0
GRID*               2793               09.2694664376E-01-2.397064023E-01+
*       -4.078984716E-01               0
GRID*               2794               0-8.663447445E-01-2.523417789E-01+
*       8.5536060254E-03               0
GRID*               2795               0-8.750595430E-01-1.841556158E-01+
*       1.0186810497E-01               0
GRID*               2796               06.8334185398E-02-2.478862768E-01+
*       -8.636291250E-01               0
GRID*               2797               0-6.010608300E-01-6.700489379E-01+
*       7.9529331894E-01               0
GRID*               2798               0-5.921243848E-01-6.424182017E-01+
*       6.2188007530E-01               0
GRID*               2799               02.0862774287E-01-9.654267494E-01+
*       9.0077376955E-01               0
GRID*               2800               0-2.311763497E-01-9.569960599E-01+
*       1.1021287048E-01               0
GRID*               2801               0-2.991361423E-01-1.085406865E+00+
*       7.8871762682E-02               0
GRID*               2802               0-4.328177688E-01-1.020570672E+00+
*       5.8559675105E-02               0
GRID*               2803               0-2.864862635E-01-9.598380077E-01+
*       -7.682808222E-03               0
GRID*               2804               0-5.232615515E-01-9.984093790E-01+
*       1.8426669701E-01               0
GRID*               2805               0-1.014611274E-02-6.716698393E-01+
*       8.0670664362E-01               0
GRID*               2806               0-5.127094051E-02-5.560351063E-01+
*       8.1816060000E-01               0
GRID*               2807               02.0710979263E-01-6.892656291E-01+
*       7.1518300773E-01               0
GRID*               2808               01.4223517497E-01-5.630271022E-01+
*       7.1244095215E-01               0
GRID*               2809               0-8.519065319E-013.2207803851E-01+
*       2.7772547203E-01               0
GRID*               2810               03.2578373945E-01-1.071372862E+00+
*       -7.917279909E-01               0
GRID*               2811               02.5760136197E-01-1.055017536E+00+
*       -9.113832366E-01               0
GRID*               2812               0-8.868034082E-01-4.286917580E-01+
*       -1.989239818E-01               0
GRID*               2813               03.4351603120E-012.3344514000E-01+
*       -9.316379863E-01               0
GRID*               2814               0-9.441071906E-01-2.863311206E-01+
*       -2.691371945E-01               0
GRID*               2815               04.8246464400E-019.7741414325E-01+
*       -2.976899400E-01               0
GRID*               2816               02.0408350505E-011.7509892926E-01+
*       8.4330240960E-01               0
GRID*               2817               01.8312518613E-012.6371585346E-01+
*       9.2637141800E-01               0
GRID*               2818               01.5840023199E-019.9517272196E-01+
*       -9.066658168E-01               0
GRID*               2819               01.0849669900E+009.9597308726E-03+
*       -8.269155617E-02               0
GRID*               2820               06.0369653788E-016.7283661955E-01+
*       -7.305034857E-02               0
GRID*               2821               06.6765482862E-01-5.812416514E-01+
*       1.9476829450E-01               0
GRID*               2822               01.5130852163E-01-9.828423900E-01+
*       -9.156074917E-01               0
GRID*               2823               05.1500924169E-01-6.600719912E-01+
*       -3.253878318E-01               0
GRID*               2824               0-3.912742265E-018.1163212368E-01+
*       8.0029819827E-01               0
GRID*               2825               07.6269316369E-01-8.100929928E-01+
*       -4.813296967E-02               0
GRID*               2826               06.9379283277E-01-7.132398688E-01+
*       -6.628557816E-03               0
GRID*               2827               06.8915063291E-01-8.830114571E-01+
*       6.3583145441E-03               0
GRID*               2828               02.0261264372E-01-8.996153353E-01+
*       -9.132025724E-01               0
GRID*               2829               07.2038348696E-023.6021532537E-01+
*       -9.413643580E-01               0
GRID*               2830               0-5.243074609E-02-8.698872887E-01+
*       -3.917728447E-01               0
GRID*               2831               0-1.854017632E-01-8.573829088E-01+
*       -3.758072591E-01               0
GRID*               2832               02.1212600946E-01-9.931080555E-01+
*       -8.095195427E-01               0
GRID*               2833               05.0712462055E-01-8.514945328E-01+
*       9.9321219787E-02               0
GRID*               2834               06.3853205068E-01-7.607813785E-01+
*       9.8163210295E-02               0
GRID*               2835               05.2743778013E-01-7.259630812E-01+
*       1.0439831066E-01               0
GRID*               2836               05.7284024559E-01-8.039003653E-01+
*       1.9480519428E-01               0
GRID*               2837               0-9.171462371E-029.4071266706E-02+
*       9.2364301481E-01               0
GRID*               2838               02.9768274184E-01-9.272177350E-01+
*       -9.280795607E-01               0
GRID*               2839               06.9351804747E-01-7.104898023E-01+
*       1.9656899248E-01               0
GRID*               2840               01.0581819891E+00-2.850596215E-01+
*       -4.392604056E-02               0
GRID*               2841               01.0428691303E+00-4.007672366E-01+
*       -7.907370038E-02               0
GRID*               2842               01.0495332676E+00-3.670142967E-01+
*       1.0012792291E-01               0
GRID*               2843               06.4554505332E-02-9.982335130E-01+
*       -9.346712102E-01               0
GRID*               2844               04.6848406135E-01-7.544096569E-01+
*       8.1249414025E-03               0
GRID*               2845               02.1885462985E-019.8442066905E-01+
*       7.4960865881E-01               0
GRID*               2846               02.8275578575E-019.4023554233E-01+
*       6.6917173923E-01               0
GRID*               2847               05.7548776867E-01-8.232967852E-01+
*       -7.743168064E-04               0
GRID*               2848               04.0023703705E-01-7.967220182E-01+
*       1.0539557782E-01               0
GRID*               2849               0-9.903654320E-02-7.076261475E-02+
*       -6.917495792E-01               0
GRID*               2850               0-1.344437203E-019.6559559086E-01+
*       -4.282817605E-01               0
GRID*               2851               0-5.853548769E-029.9402586320E-01+
*       -5.909025958E-01               0
GRID*               2852               0-1.699220373E-019.5719023625E-01+
*       -5.896302424E-01               0
GRID*               2853               0-1.877644166E-028.8167283813E-01+
*       -6.438477214E-01               0
GRID*               2854               0-1.916350965E-018.5234592882E-01+
*       -6.697368953E-01               0
GRID*               2855               01.7706444576E-011.1021708530E+00+
*       8.6271114313E-01               0
GRID*               2856               01.4158876909E-018.7512327798E-01+
*       -6.098412272E-01               0
GRID*               2857               07.7565180938E-027.3642514248E-01+
*       -6.836806007E-01               0
GRID*               2858               01.1123722876E-018.9802178606E-01+
*       -7.011027411E-01               0
GRID*               2859               0-1.810678188E-028.8019918597E-01+
*       -8.074984702E-01               0
GRID*               2860               06.1781297553E-021.0209745076E+00+
*       -6.115891511E-01               0
GRID*               2861               06.3514862622E-01-9.291508229E-01+
*       9.2413957702E-02               0
GRID*               2862               02.2648319336E-01-8.293530679E-01+
*       6.7280776897E-01               0
GRID*               2863               02.6769048491E-01-7.300033420E-01+
*       5.5947825069E-01               0
GRID*               2864               04.9468772326E-011.0052800204E+00+
*       -5.003479437E-02               0
GRID*               2865               05.1846132565E-019.9663045770E-01+
*       -1.438793279E-01               0
GRID*               2866               0-2.053914970E-011.0152228013E-01+
*       -9.098927052E-01               0
GRID*               2867               0-2.778201115E-011.2370081614E-01+
*       -9.358819231E-01               0
GRID*               2868               0-1.130523133E-011.4673925589E-01+
*       -9.230063400E-01               0
GRID*               2869               01.9141494382E-01-1.070015575E-02+
*       8.4508047419E-01               0
GRID*               2870               02.2445359684E-01-1.364212173E-02+
*       9.4682351997E-01               0
GRID*               2871               05.1660575951E-01-9.977827204E-01+
*       9.1971122966E-01               0
GRID*               2872               04.8184252436E-017.0913876136E-01+
*       2.9885385592E-01               0
GRID*               2873               0-7.786113680E-014.5944853549E-01+
*       3.5617804010E-01               0
GRID*               2874               0-5.417246264E-01-2.682536945E-02+
*       -9.078562091E-01               0
GRID*               2875               0-7.112372415E-015.0055829014E-01+
*       2.1917358624E-01               0
GRID*               2876               0-7.513745791E-013.9075816648E-01+
*       4.7016368322E-01               0
GRID*               2877               0-1.690976430E-032.7652124536E-01+
*       6.9731238485E-01               0
GRID*               2878               04.2036771596E-01-7.438168308E-03+
*       9.2048082167E-01               0
GRID*               2879               0-1.122200426E+009.5627304993E-02+
*       -1.947558824E-01               0
GRID*               2880               06.3722128387E-01-9.188074385E-01+
*       8.1445845751E-01               0
GRID*               2881               06.2119382941E-01-5.735983226E-01+
*       -2.793373750E-01               0
GRID*               2882               06.6250088495E-01-6.706797438E-01+
*       -1.370543536E-01               0
GRID*               2883               05.9507968048E-01-7.237720602E-01+
*       -2.222747102E-01               0
GRID*               2884               05.3500007222E-01-7.084444916E-01+
*       -8.195617359E-02               0
GRID*               2885               0-3.850506521E-012.0898066959E-01+
*       -9.155285543E-01               0
GRID*               2886               02.1105183764E-042.6427512628E-01+
*       8.1140198664E-01               0
GRID*               2887               02.9939057829E-033.6590956937E-01+
*       8.0913314560E-01               0
GRID*               2888               0-7.080365955E-018.5712741315E-01+
*       -7.080142329E-01               0
GRID*               2889               0-8.855534214E-022.9944764608E-01+
*       8.0852180053E-01               0
GRID*               2890               04.4993004047E-01-9.001997418E-01+
*       9.1855590197E-01               0
GRID*               2891               0-3.400763957E-01-9.971083660E-01+
*       -2.161991021E-01               0
GRID*               2892               0-9.747012718E-011.0908459320E-01+
*       -1.955976868E-01               0
GRID*               2893               0-9.973901903E-01-4.872355815E-01+
*       -1.074870482E-01               0
GRID*               2894               08.0756608014E-015.9786976641E-01+
*       9.0246245172E-01               0
GRID*               2895               08.7636444154E-016.8365816211E-01+
*       7.8280636640E-01               0
GRID*               2896               06.6857045226E-01-3.393517662E-01+
*       6.9721698414E-01               0
GRID*               2897               0-2.059082085E-01-4.711988349E-02+
*       9.0754084042E-01               0
GRID*               2898               0-3.673982812E-01-7.859908578E-01+
*       -2.024355074E-01               0
GRID*               2899               06.4477313726E-018.7288270609E-01+
*       4.0933982722E-01               0
GRID*               2900               06.6080690267E-019.1252752445E-01+
*       5.6257262232E-01               0
GRID*               2901               0-3.470937741E-01-7.811010573E-01+
*       -5.331922390E-01               0
GRID*               2902               0-3.376963391E-01-9.053577961E-01+
*       -3.082093965E-01               0
GRID*               2903               0-3.037816475E-011.0296008066E+00+
*       9.3561461472E-01               0
GRID*               2904               02.0252937862E-011.9901628360E-01+
*       -9.129219934E-01               0
GRID*               2905               01.1115535778E+00-1.498612758E-01+
*       -2.043882386E-01               0
GRID*               2906               0-2.100974534E-011.1021832299E+00+
*       7.6642265915E-01               0
GRID*               2907               0-1.105161659E-01-8.770147865E-01+
*       7.0648629346E-01               0
GRID*               2908               0-1.842120258E-021.0825858490E-01+
*       7.9209190251E-01               0
GRID*               2909               0-7.155077555E-022.0462869959E-01+
*       8.8023726138E-01               0
GRID*               2910               04.2993950886E-031.8350324892E-01+
*       8.7938650598E-01               0
GRID*               2911               0-1.390412746E-01-6.109948700E-01+
*       9.0904468681E-01               0
GRID*               2912               03.8051394139E-03-5.914770777E-01+
*       9.0824056094E-01               0
GRID*               2913               0-8.307382400E-017.6346162798E-01+
*       6.8197940090E-01               0
GRID*               2914               0-4.801207723E-02-3.164320276E-01+
*       -5.648561166E-01               0
GRID*               2915               0-3.999195101E-01-8.299744871E-01+
*       7.5660469928E-01               0
GRID*               2916               0-5.082280734E-01-7.772499345E-01+
*       6.5318582397E-01               0
GRID*               2917               0-4.141856857E-01-8.124404367E-01+
*       6.0063963987E-01               0
GRID*               2918               0-4.417745722E-01-9.047774055E-01+
*       6.7348138548E-01               0
GRID*               2919               0-6.480890234E-019.1601568957E-01+
*       -6.470540090E-01               0
GRID*               2920               0-3.597641495E-01-9.134568538E-01+
*       7.7489076729E-01               0
GRID*               2921               0-9.622582107E-015.6208911320E-01+
*       -8.222126771E-01               0
GRID*               2922               0-7.186740295E-018.6386471723E-01+
*       -5.109886685E-01               0
GRID*               2923               03.4088337132E-02-5.139649286E-01+
*       -7.070080469E-01               0
GRID*               2924               0-2.429521239E-011.9496957611E-01+
*       9.4322811256E-01               0
GRID*               2925               0-8.894272747E-016.4880457890E-01+
*       5.0442640051E-01               0
GRID*               2926               0-9.158818162E-01-5.890788839E-01+
*       -3.996534230E-02               0
GRID*               2927               0-9.523672007E-01-5.515770952E-01+
*       -1.987999826E-01               0
GRID*               2928               0-7.164822737E-018.5814435824E-01+
*       6.6007299282E-01               0
GRID*               2929               0-3.258624815E-015.4066522272E-01+
*       9.2855145064E-01               0
GRID*               2930               0-1.576859133E-016.5675416535E-01+
*       -9.031229601E-01               0
GRID*               2931               04.7379561517E-017.9753060119E-01+
*       4.0394435109E-01               0
GRID*               2932               0-6.328820102E-026.7234258853E-01+
*       6.9083038017E-01               0
GRID*               2933               06.5381609466E-025.9292255086E-01+
*       7.0124356866E-01               0
GRID*               2934               0-7.396678867E-015.4614412650E-01+
*       -6.056454742E-01               0
GRID*               2935               0-6.522855517E-014.9055047406E-01+
*       -7.004751171E-01               0
GRID*               2936               05.7219755327E-013.9188671825E-01+
*       -6.979966829E-01               0
GRID*               2937               02.7472922787E-011.0431184133E-01+
*       -6.492531726E-01               0
GRID*               2938               04.5148376768E-012.2293979549E-01+
*       -6.971183294E-01               0
GRID*               2939               0-1.101229542E+005.2302821110E-02+
*       3.3650590638E-01               0
GRID*               2940               0-6.143826374E-01-5.215573050E-01+
*       3.0259999436E-01               0
GRID*               2941               08.3795366586E-015.5284626092E-01+
*       7.9079869024E-01               0
GRID*               2942               0-8.760239847E-02-2.908081104E-01+
*       9.2185008468E-01               0
GRID*               2943               09.7981898803E-02-2.378788121E-01+
*       9.3275377097E-01               0
GRID*               2944               0-6.980528642E-02-3.856773332E-01+
*       9.2361424656E-01               0
GRID*               2945               0-8.288612043E-012.8750269015E-01+
*       4.3213488171E-01               0
GRID*               2946               01.1243973768E+00-2.593294290E-02+
*       8.3628966842E-01               0
GRID*               2947               01.0324500307E+001.9041470505E-01+
*       9.1972104832E-01               0
GRID*               2948               0-8.748598379E-015.1113864526E-01+
*       2.8024931501E-01               0
GRID*               2949               08.9283080224E-011.0728105970E-01+
*       8.0182461390E-01               0
GRID*               2950               08.8225611989E-011.5863639643E-01+
*       9.0333669226E-01               0
GRID*               2951               09.1284490431E-016.5042163390E-02+
*       9.0606138659E-01               0
GRID*               2952               07.6490424966E-014.9037985959E-01+
*       9.3003101204E-01               0
GRID*               2953               08.9785153665E-01-1.511104793E-01+
*       9.0872993603E-01               0
GRID*               2954               0-2.524139067E-01-4.237786572E-01+
*       6.9658421140E-01               0
GRID*               2955               04.6312586166E-01-7.473218850E-01+
*       -4.633813022E-01               0
GRID*               2956               04.0549856265E-01-7.354364361E-01+
*       -3.351505864E-01               0
GRID*               2957               01.3378909092E-014.3500161119E-01+
*       9.1131541292E-01               0
GRID*               2958               07.1465492306E-02-9.903665712E-01+
*       9.1474027940E-01               0
GRID*               2959               05.0906792949E-01-7.797619876E-01+
*       9.2803658108E-01               0
GRID*               2960               05.5874669254E-01-6.739605012E-01+
*       9.2640408227E-01               0
GRID*               2961               05.7784444785E-01-3.279468232E-01+
*       -8.411544345E-01               0
GRID*               2962               05.5615325375E-01-4.026412274E-01+
*       -7.286408896E-01               0
GRID*               2963               04.9175510192E-01-3.869418647E-01+
*       -8.229728240E-01               0
GRID*               2964               05.7894280314E-01-4.540484132E-01+
*       -8.271183786E-01               0
GRID*               2965               04.4547074318E-01-3.599820001E-01+
*       -7.177953554E-01               0
GRID*               2966               04.3148070762E-01-2.396614109E-01+
*       -7.975327039E-01               0
GRID*               2967               05.4528937069E-01-3.050212266E-01+
*       -7.325929291E-01               0
GRID*               2968               03.6907668578E-01-3.836565384E-01+
*       -8.215519770E-01               0
GRID*               2969               03.4788182246E-01-4.464583314E-01+
*       -7.375943876E-01               0
GRID*               2970               0-1.074704656E+00-2.943213358E-01+
*       8.9227690837E-01               0
GRID*               2971               0-9.881135172E-01-2.273126517E-01+
*       9.0143545443E-01               0
GRID*               2972               0-7.409672060E-01-5.827965196E-01+
*       9.1082943891E-01               0
GRID*               2973               0-3.713245304E-017.2196175975E-01+
*       -5.637626434E-01               0
GRID*               2974               0-5.784932527E-016.8965504398E-01+
*       -4.893642764E-01               0
GRID*               2975               0-5.099547536E-017.4238609918E-01+
*       -6.090720956E-01               0
GRID*               2976               0-3.640825224E-018.2341549763E-01+
*       -4.039007319E-01               0
GRID*               2977               0-4.960692314E-017.1303436504E-01+
*       -3.608580655E-01               0
GRID*               2978               04.3502720503E-01-4.734042159E-01+
*       -8.179612690E-01               0
GRID*               2979               04.8450106283E-01-5.609130134E-01+
*       -8.039368871E-01               0
GRID*               2980               0-3.293487024E-01-1.075335246E+00+
*       8.1621470734E-01               0
GRID*               2981               04.9973543772E-01-6.097400109E-01+
*       -6.208519038E-01               0
GRID*               2982               0-3.698836261E-01-8.517908077E-01+
*       9.0989403869E-01               0
GRID*               2983               0-7.131414838E-01-4.721532999E-01+
*       9.0475387099E-01               0
GRID*               2984               05.7434927933E-01-6.760770463E-01+
*       -5.240176051E-01               0
GRID*               2985               0-8.840492535E-01-6.690699005E-01+
*       8.7489074246E-01               0
GRID*               2986               0-4.116101467E-01-5.982877108E-01+
*       9.2514095433E-01               0
GRID*               2987               02.3410369608E-01-4.849764430E-01+
*       8.1067196474E-01               0
GRID*               2988               01.1520088547E-01-3.956884166E-01+
*       7.2903289029E-01               0
GRID*               2989               02.0269967281E-01-3.812550177E-01+
*       7.9415095232E-01               0
GRID*               2990               02.6327560699E-01-4.487816120E-01+
*       7.1238309861E-01               0
GRID*               2991               0-5.649668829E-01-8.728865759E-01+
*       9.2358186643E-01               0
GRID*               2992               08.8143447975E-01-1.315713197E-01+
*       3.3776737318E-02               0
GRID*               2993               01.0352999961E+00-1.780243317E-01+
*       -9.994168896E-02               0
GRID*               2994               08.9512836579E-01-3.760552168E-02+
*       -4.050111582E-02               0
GRID*               2995               0-1.768552182E-014.1974572285E-02+
*       6.8670921159E-01               0
GRID*               2996               0-1.952885285E-013.9261208699E-01+
*       8.0270888856E-01               0
GRID*               2997               03.5414012275E-01-8.762101687E-01+
*       8.9530628379E-01               0
GRID*               2998               07.4604242516E-01-8.409421366E-01+
*       8.3223672360E-01               0
GRID*               2999               02.0100026949E-01-7.917226502E-01+
*       9.0443385761E-01               0
GRID*               3000               05.7643190477E-012.4028571126E-01+
*       9.0559799758E-01               0
GRID*               3001               07.5549606972E-018.3617207842E-01+
*       6.6670152352E-01               0
GRID*               3002               01.0281432203E+003.9616841815E-01+
*       4.5314328431E-01               0
GRID*               3003               0-6.661981687E-01-1.657950157E-02+
*       9.0618587746E-01               0
GRID*               3004               0-1.089137623E+001.1504684749E-01+
*       -6.084920993E-02               0
GRID*               3005               0-1.075397100E+00-3.229116382E-01+
*       4.1865808832E-01               0
GRID*               3006               0-1.059814832E+00-1.344642675E-02+
*       9.2619402867E-01               0
GRID*               3007               01.1638190538E-02-3.960825144E-01+
*       -7.177279530E-01               0
GRID*               3008               04.3935340605E-02-2.749289569E-01+
*       -6.912665571E-01               0
GRID*               3009               0-1.074284652E+002.4941421579E-01+
*       6.9226702287E-01               0
GRID*               3010               0-9.240349954E-016.5525279486E-02+
*       9.1889253078E-01               0
GRID*               3011               0-9.767007041E-01-2.760002499E-01+
*       3.0799894009E-01               0
GRID*               3012               0-9.246044250E-01-3.508094572E-01+
*       1.9997266572E-01               0
GRID*               3013               0-1.039330465E+00-3.861412877E-01+
*       2.5978228846E-01               0
GRID*               3014               02.6359335975E-019.3360166240E-01+
*       -9.274125071E-01               0
GRID*               3015               02.7869286353E-015.0066003030E-02+
*       -5.340353287E-01               0
GRID*               3016               05.2829750992E-019.4065426185E-01+
*       -9.212053371E-01               0
GRID*               3017               03.7764285780E-017.9796802049E-02+
*       -7.445325450E-01               0
GRID*               3018               02.8588873298E-01-7.962681704E-03+
*       -6.885550589E-01               0
GRID*               3019               0-4.493349281E-01-1.326500847E-02+
*       9.2385047569E-01               0
GRID*               3020               0-6.030519499E-01-1.281542061E-01+
*       7.1123704183E-01               0
GRID*               3021               06.3964775851E-01-8.956702874E-01+
*       2.9503360609E-01               0
GRID*               3022               07.2507983657E-01-4.407430518E-01+
*       8.3166982437E-01               0
GRID*               3023               01.6635715851E-01-2.429332728E-03+
*       7.6416103061E-01               0
GRID*               3024               01.0562119566E-013.4424811982E-02+
*       8.6845640067E-01               0
GRID*               3025               01.4152429630E-01-8.201116795E-02+
*       8.4470728678E-01               0
GRID*               3026               01.4755392947E-01-8.376345112E-02+
*       7.4482597643E-01               0
GRID*               3027               01.5603795922E-01-1.765483566E-01+
*       7.6858400550E-01               0
GRID*               3028               05.2175420268E-019.9737218047E-01+
*       8.6404276290E-01               0
GRID*               3029               04.1560271006E-01-1.044238010E+00+
*       8.4175121787E-01               0
GRID*               3030               04.4551847922E-01-8.966740171E-01+
*       7.6467329144E-01               0
GRID*               3031               0-2.679944090E-016.8410459698E-01+
*       7.0284071347E-01               0
GRID*               3032               06.0968533978E-02-8.360351618E-02+
*       8.3750606249E-01               0
GRID*               3033               0-5.921279323E-021.1190679192E+00+
*       -7.974936891E-01               0
GRID*               3034               0-1.760941071E-011.0904014858E+00+
*       -7.932652188E-01               0
GRID*               3035               0-7.738005584E-015.8026904163E-01+
*       3.8907779997E-01               0
GRID*               3036               0-6.357728106E-016.4098281801E-01+
*       3.7351204754E-01               0
GRID*               3037               0-7.069088789E-016.7086993793E-01+
*       4.1277242874E-01               0
GRID*               3038               0-7.908842985E-014.5206630440E-01+
*       5.9824821590E-01               0
GRID*               3039               0-7.456627145E-015.4055431493E-01+
*       5.1244294782E-01               0
GRID*               3040               0-4.805705238E-019.9796993420E-01+
*       5.8914262473E-01               0
GRID*               3041               07.2577779801E-02-1.738388443E-01+
*       7.9805559054E-01               0
GRID*               3042               02.9573635966E-027.5058013342E-01+
*       -9.037665120E-01               0
GRID*               3043               02.6418063034E-026.5248696888E-01+
*       -9.041863826E-01               0
GRID*               3044               0-5.447909859E-01-9.804864240E-01+
*       8.1979240462E-01               0
GRID*               3045               0-6.503174005E-01-8.989026130E-01+
*       8.5593741590E-01               0
GRID*               3046               02.7505475336E-01-4.975535917E-02+
*       8.2451770475E-01               0
GRID*               3047               0-7.700620576E-026.0702996008E-01+
*       -8.981507204E-01               0
GRID*               3048               0-5.593420891E-028.1252168918E-01+
*       -9.098971784E-01               0
GRID*               3049               0-8.346149846E-014.3431750509E-01+
*       9.1429467919E-01               0
GRID*               3050               01.0739500702E+00-3.341063376E-01+
*       -7.586307298E-01               0
GRID*               3051               01.0543091995E+00-2.388060528E-01+
*       -9.211831755E-01               0
GRID*               3052               0-1.079490197E+00-3.157087038E-01+
*       7.6731577238E-01               0
GRID*               3053               02.7512842353E-01-1.420278777E-01+
*       8.2098716163E-01               0
GRID*               3054               01.6049791377E-01-1.740203965E-01+
*       8.9304881910E-01               0
GRID*               3055               0-6.118586566E-01-1.660958224E-01+
*       8.0310357053E-01               0
GRID*               3056               0-5.036652468E-01-1.537579871E-01+
*       7.1633066752E-01               0
GRID*               3057               03.4937840948E-01-4.731872585E-01+
*       -9.194362203E-01               0
GRID*               3058               05.3924257616E-01-3.425631337E-01+
*       -9.286739665E-01               0
GRID*               3059               09.1851346328E-01-6.109730274E-01+
*       1.8425871327E-01               0
GRID*               3060               0-8.462991686E-013.1957807571E-01+
*       9.0965847425E-02               0
GRID*               3061               0-8.266874968E-014.5020934602E-01+
*       1.4099654000E-01               0
GRID*               3062               01.0427792292E+00-1.284328293E-01+
*       9.1136255938E-01               0
GRID*               3063               01.0968548058E+00-1.921021989E-01+
*       4.9058295591E-01               0
GRID*               3064               01.1126387031E+001.3799457395E-02+
*       2.7940265207E-01               0
GRID*               3065               09.6041723688E-01-5.391153355E-02+
*       9.3313805544E-01               0
GRID*               3066               03.9181051510E-01-3.911101436E-01+
*       8.0039921780E-01               0
GRID*               3067               04.7705559991E-01-3.100426717E-01+
*       8.0992608400E-01               0
GRID*               3068               03.5368635387E-01-3.807232126E-01+
*       7.0579354877E-01               0
GRID*               3069               04.9605398741E-01-8.899681195E-01+
*       -9.311466154E-01               0
GRID*               3070               03.3763704154E-01-2.870798771E-01+
*       -9.067017258E-01               0
GRID*               3071               0-3.266726994E-018.0709500502E-01+
*       2.2177004225E-01               0
GRID*               3072               0-7.445037805E-01-5.397575258E-01+
*       2.9718848175E-01               0
GRID*               3073               04.9991925550E-01-1.004533638E+00+
*       -8.641101859E-01               0
GRID*               3074               08.7770567268E-01-5.120826148E-01+
*       -9.005976201E-01               0
GRID*               3075               04.0533924738E-01-1.038379954E+00+
*       -4.811856792E-01               0
GRID*               3076               06.3184461778E-019.3476901893E-01+
*       3.1830656362E-01               0
GRID*               3077               0-6.058206353E-02-8.578565955E-01+
*       9.1337543972E-01               0
GRID*               3078               0-9.279825578E-013.3265453125E-01+
*       -2.858883518E-01               0
GRID*               3079               0-2.405027324E-015.3991760368E-01+
*       -7.999185104E-01               0
GRID*               3080               0-2.623905974E-014.2270934318E-01+
*       -8.012444485E-01               0
GRID*               3081               0-3.550663496E-014.8682705426E-01+
*       -8.140263418E-01               0
GRID*               3082               06.6124853484E-01-6.663996011E-01+
*       8.3704013455E-01               0
GRID*               3083               06.6559520002E-01-7.671765517E-01+
*       9.0872391832E-01               0
GRID*               3084               02.8067100696E-01-4.187070605E-01+
*       9.0652727528E-01               0
GRID*               3085               0-1.063105735E+003.3536883627E-01+
*       -3.054001236E-01               0
GRID*               3086               0-9.361191589E-012.6028390304E-01+
*       -1.824202785E-01               0
GRID*               3087               0-9.192518412E-014.1620946645E-01+
*       -1.492610978E-01               0
GRID*               3088               0-3.499294308E-012.9249396539E-02+
*       -9.289627257E-01               0
GRID*               3089               0-2.819362234E-015.9510476466E-02+
*       -9.412464343E-01               0
GRID*               3090               0-1.070766373E+00-3.354577705E-01+
*       -6.932681450E-01               0
GRID*               3091               0-7.967109611E-012.7047829026E-01+
*       9.2059982816E-01               0
GRID*               3092               0-4.878012309E-012.9513431771E-02+
*       8.0874524471E-01               0
GRID*               3093               0-9.456398260E-012.3845673958E-01+
*       -1.347873109E-02               0
GRID*               3094               0-9.384340531E-013.6981844641E-01+
*       -1.149883547E-02               0
GRID*               3095               0-6.502304429E-01-5.119499396E-02+
*       8.1007840136E-01               0
GRID*               3096               0-4.408656634E-01-1.002367926E-01+
*       8.1722695774E-01               0
GRID*               3097               0-3.770975879E-01-3.283116792E-02+
*       7.6503997358E-01               0
GRID*               3098               0-5.497500218E-01-7.409391038E-02+
*       8.1479272523E-01               0
GRID*               3099               05.1319482578E-018.6012979124E-01+
*       2.8607150940E-01               0
GRID*               3100               0-1.093591570E+00-2.668544174E-02+
*       8.0056563812E-01               0
GRID*               3101               06.2173607730E-017.3900298312E-01+
*       2.7183024012E-01               0
GRID*               3102               0-9.484187817E-012.7426686059E-01+
*       1.3941134033E-01               0
GRID*               3103               0-9.610082954E-011.5058537298E-01+
*       1.0458923767E-01               0
GRID*               3104               0-1.091835173E+001.5884020994E-01+
*       6.2882929886E-02               0
GRID*               3105               0-9.496587493E-013.8391367165E-01+
*       2.0229183169E-01               0
GRID*               3106               0-9.692565421E-011.9901803987E-01+
*       -2.983489823E-01               0
GRID*               3107               07.2857304951E-015.1798667164E-01+
*       -4.343024229E-01               0
GRID*               3108               06.9776715929E-014.8584596798E-01+
*       -2.925882405E-01               0
GRID*               3109               01.1109804857E+001.5608775063E-01+
*       -8.489107844E-01               0
GRID*               3110               01.0318250946E+002.4775146179E-01+
*       -9.311033011E-01               0
GRID*               3111               0-9.153901013E-01-3.569832600E-01+
*       -9.315338903E-01               0
GRID*               3112               0-1.109008000E+001.1100731438E-01+
*       9.1786340870E-01               0
GRID*               3113               01.0311763582E+001.0344736474E-01+
*       -9.159564101E-01               0
GRID*               3114               09.0665881911E-016.2037509672E-01+
*       3.8862179210E-01               0
GRID*               3115               08.3488252506E-017.0081879424E-01+
*       3.3007600706E-01               0
GRID*               3116               09.2466249686E-016.0199068385E-01+
*       2.8146737663E-01               0
GRID*               3117               01.0049653355E+004.9070924677E-01+
*       3.1686468093E-01               0
GRID*               3118               08.5890312774E-016.5662070566E-01+
*       5.7785406560E-01               0
GRID*               3119               07.9260052517E-015.8700115721E-01+
*       4.6269037201E-01               0
GRID*               3120               0-9.710825499E-01-6.016427980E-02+
*       7.3032973440E-03               0
GRID*               3121               02.7012724860E-01-3.908175798E-02+
*       7.0634555861E-01               0
GRID*               3122               08.6162536317E-014.8855209994E-01+
*       4.1829880566E-01               0
GRID*               3123               0-1.023397242E+005.6990789336E-02+
*       8.9895896376E-01               0
GRID*               3124               0-2.709727858E-01-2.916624082E-01+
*       6.8147528973E-01               0
GRID*               3125               0-3.174227820E-01-3.238370103E-01+
*       8.0977308685E-01               0
GRID*               3126               0-1.972217758E-01-3.203611897E-01+
*       7.7769014258E-01               0
GRID*               3127               0-1.112681780E+001.6907129983E-01+
*       5.7584408323E-01               0
GRID*               3128               03.6340284417E-01-8.815082448E-02+
*       -8.062677701E-01               0
GRID*               3129               03.8286346915E-01-1.361506281E-01+
*       -7.121776752E-01               0
GRID*               3130               04.2253353383E-019.5899524519E-01+
*       9.2002844263E-01               0
GRID*               3131               04.7416785446E-018.3716053243E-01+
*       9.0876743081E-01               0
GRID*               3132               05.1021732245E-013.5389915148E-01+
*       -8.046209042E-01               0
GRID*               3133               05.3724292962E-015.7584262260E-01+
*       -1.589860834E-01               0
GRID*               3134               02.6464763275E-01-6.942477152E-01+
*       8.9208022557E-01               0
GRID*               3135               0-1.550860198E-01-1.083111090E+00+
*       4.8351993500E-01               0
GRID*               3136               06.4411436187E-01-9.055672045E-01+
*       4.7957772642E-01               0
GRID*               3137               09.6199688940E-012.8251233394E-01+
*       3.9514455549E-01               0
GRID*               3138               04.4818230882E-01-4.355449597E-01+
*       -9.168991184E-01               0
GRID*               3139               07.8047698530E-01-7.939909957E-01+
*       -2.744404126E-01               0
GRID*               3140               05.1095017759E-01-5.561199257E-01+
*       -9.096437397E-01               0
GRID*               3141               06.2017592505E-019.2079888237E-01+
*       7.3440707583E-01               0
GRID*               3142               06.8891077321E-018.8251553796E-01+
*       7.8811787632E-01               0
GRID*               3143               02.4503999735E-02-7.084156817E-01+
*       -9.234798615E-01               0
GRID*               3144               01.0788260099E-01-8.699834873E-01+
*       2.7238608330E-01               0
GRID*               3145               09.5859212524E-015.6331793149E-01+
*       4.5231955583E-01               0
GRID*               3146               06.9648897291E-015.4528848854E-02+
*       -8.008535996E-01               0
GRID*               3147               01.0588167933E+00-3.672939682E-01+
*       8.9356379327E-01               0
GRID*               3148               05.9566835594E-016.6738739209E-01+
*       3.4915791879E-01               0
GRID*               3149               01.0353037966E+00-3.603491980E-01+
*       7.8434654274E-01               0
GRID*               3150               01.0236510018E+005.3524352546E-02+
*       9.1047065280E-01               0
GRID*               3151               0-7.223155916E-01-1.773144096E-01+
*       -9.120157715E-01               0
GRID*               3152               0-2.398825778E-013.8986944715E-01+
*       -7.281233033E-01               0
GRID*               3153               0-1.119782049E+001.5866231162E-02+
*       1.7464993810E-03               0
GRID*               3154               03.9742056424E-01-5.026757888E-01+
*       8.2138617194E-01               0
GRID*               3155               05.2505573620E-01-4.877784147E-01+
*       8.0846954970E-01               0
GRID*               3156               0-1.787644268E-012.8202674781E-01+
*       -6.971552843E-01               0
GRID*               3157               0-3.473248314E-015.8285278213E-01+
*       -8.097244763E-01               0
GRID*               3158               03.6256976073E-01-8.620816785E-01+
*       6.5717220827E-01               0
GRID*               3159               0-1.070501718E+003.3637755496E-01+
*       8.5183446909E-01               0
GRID*               3160               0-8.513083821E-01-2.507097945E-02+
*       -9.035313476E-01               0
GRID*               3161               0-7.125076833E-016.6511766380E-02+
*       -9.151223618E-01               0
GRID*               3162               0-1.801949632E-02-1.107199705E+00+
*       5.0493856960E-01               0
GRID*               3163               01.2046842350E-02-9.986195834E-01+
*       6.0121060188E-01               0
GRID*               3164               09.6963239696E-01-5.332114061E-01+
*       6.2018112151E-01               0
GRID*               3165               0-1.493275576E-012.0770613745E-02+
*       9.4152224041E-01               0
GRID*               3166               0-1.545393377E-011.1170464556E+00+
*       1.3149843505E-01               0
GRID*               3167               0-1.211783357E-019.8658200772E-01+
*       1.8829941931E-01               0
GRID*               3168               0-2.225924727E-011.0724397876E+00+
*       8.0081799580E-02               0
GRID*               3169               0-1.210603944E-019.9561203624E-01+
*       8.2307036950E-03               0
GRID*               3170               0-5.749704161E-01-9.120600001E-01+
*       -4.736396230E-01               0
GRID*               3171               01.0960007524E+00-5.150999055E-02+
*       7.1434946692E-01               0
GRID*               3172               08.1442233040E-017.5300111096E-01+
*       1.9376146081E-01               0
GRID*               3173               0-4.686274378E-019.9886350752E-01+
*       2.0186125101E-01               0
GRID*               3174               0-1.673560499E-01-2.237967577E-01+
*       9.2249089758E-01               0
GRID*               3175               0-1.813089509E-015.5474706343E-01+
*       -9.045610545E-01               0
GRID*               3176               0-9.180234043E-016.3354140637E-01+
*       -7.004464483E-01               0
GRID*               3177               0-5.864363992E-01-4.627321064E-01+
*       -9.129716219E-01               0
GRID*               3178               0-3.734844334E-019.0473945160E-01+
*       1.2929827275E-01               0
GRID*               3179               0-4.329412715E-018.9353885600E-01+
*       -9.871764862E-02               0
GRID*               3180               0-2.405869002E-01-7.640793516E-01+
*       9.1408077472E-01               0
GRID*               3181               0-8.374898253E-013.2447123609E-01+
*       -3.931493990E-01               0
GRID*               3182               0-2.067101679E-019.7325116139E-01+
*       -1.465393081E-01               0
GRID*               3183               0-2.477078918E-019.5070754246E-01+
*       6.3420969416E-02               0
GRID*               3184               08.0787444692E-012.4268557014E-01+
*       -9.055952151E-01               0
GRID*               3185               04.1586685073E-011.8921271657E-01+
*       9.0479385747E-01               0
GRID*               3186               01.0138114101E+003.7899865831E-01+
*       -8.998481672E-01               0
GRID*               3187               04.6304355552E-011.2755353119E-01+
*       -8.198790105E-01               0
GRID*               3188               05.3724203894E-011.1736637704E-01+
*       -9.045972348E-01               0
GRID*               3189               04.5302812962E-013.0042761408E-02+
*       -9.016518789E-01               0
GRID*               3190               04.3974426284E-011.6686659762E-01+
*       -9.328546460E-01               0
GRID*               3191               0-3.944188956E-011.0255540669E+00+
*       -8.382525124E-02               0
GRID*               3192               0-2.785799102E-011.0644086492E+00+
*       -4.292594653E-02               0
GRID*               3193               08.8713196909E-012.7797030719E-01+
*       -9.063484597E-01               0
GRID*               3194               08.2325565331E-015.6233849992E-01+
*       -9.405978673E-01               0
GRID*               3195               01.0214231334E-01-7.759585376E-01+
*       6.9176588697E-01               0
GRID*               3196               07.6772490065E-01-6.412680738E-01+
*       8.0436615669E-01               0
GRID*               3197               07.6851002281E-01-5.028382279E-01+
*       7.1933754160E-01               0
GRID*               3198               01.0737271100E+002.9199305047E-01+
*       -7.899163125E-01               0
GRID*               3199               0-7.172180035E-016.3318079149E-02+
*       -7.017832456E-01               0
GRID*               3200               07.9060502100E-01-7.354540568E-01+
*       6.7928020256E-01               0
GRID*               3201               08.9104677350E-01-6.604417393E-01+
*       6.7341742603E-01               0
GRID*               3202               0-1.097722619E+00-1.907471513E-01+
*       -7.074431481E-01               0
GRID*               3203               0-9.433736553E-014.1866611424E-01+
*       -9.026025004E-01               0
GRID*               3204               0-8.664456512E-012.0247716549E-01+
*       -9.037181879E-01               0
GRID*               3205               02.8021922220E-017.6464590429E-02+
*       7.3021741322E-01               0
GRID*               3206               0-8.532244824E-013.3270973235E-01+
*       -9.119912334E-01               0
GRID*               3207               0-1.415399300E-014.9323142808E-01+
*       -8.019513388E-01               0
GRID*               3208               0-3.138817229E-02-8.520792774E-02+
*       8.6998226087E-01               0
GRID*               3209               0-3.763015231E-016.6280746786E-01+
*       -7.060182598E-01               0
GRID*               3210               0-9.741122016E-01-2.936328485E-01+
*       5.0940482110E-01               0
GRID*               3211               0-9.221782353E-01-3.796205497E-01+
*       3.9557849987E-01               0
GRID*               3212               0-8.194530247E-01-3.034438415E-01+
*       2.8907003769E-01               0
GRID*               3213               07.9289479321E-025.3534727314E-01+
*       9.0632665942E-01               0
GRID*               3214               0-9.810087462E-01-9.817380228E-02+
*       -6.643645137E-01               0
GRID*               3215               0-1.112855959E+004.9043565111E-03+
*       -7.169024477E-01               0
GRID*               3216               0-9.701178274E-01-6.781702376E-02+
*       -7.949140525E-01               0
GRID*               3217               0-1.120612760E+00-9.513379772E-02+
*       -7.297374956E-01               0
GRID*               3218               0-9.962233047E-013.9025696252E-02+
*       -2.822945364E-01               0
GRID*               3219               0-1.378564342E-011.4161128321E-01+
*       9.0145784356E-01               0
GRID*               3220               0-6.504499816E-019.1756485016E-01+
*       -1.819193546E-01               0
GRID*               3221               08.1443575037E-017.4524053623E-01+
*       -3.902875725E-01               0
GRID*               3222               04.3473967786E-013.9336973787E-01+
*       -9.220226167E-01               0
GRID*               3223               04.8942285441E-017.0249662810E-01+
*       8.9823759540E-01               0
GRID*               3224               01.0407223372E+003.9244284225E-01+
*       5.4175161075E-02               0
GRID*               3225               07.8100460243E-01-7.982453461E-01+
*       3.0570695392E-01               0
GRID*               3226               0-1.428784931E-02-7.607329548E-01+
*       6.8185669156E-01               0
GRID*               3227               0-2.377571982E-017.1879331087E-01+
*       -9.063198449E-01               0
GRID*               3228               04.0256153368E-015.9756869988E-01+
*       -9.247350275E-01               0
GRID*               3229               0-1.648052578E-01-8.624831800E-01+
*       9.0458734217E-01               0
GRID*               3230               07.7546735389E-01-3.695077700E-01+
*       -9.110127461E-01               0
GRID*               3231               05.5974625001E-01-9.429489562E-01+
*       3.8533720812E-01               0
GRID*               3232               05.2709839306E-016.6117316391E-01+
*       -9.040972983E-01               0
GRID*               3233               07.6889482275E-032.6236269580E-01+
*       9.2589508105E-01               0
GRID*               3234               0-1.040214761E-013.9849929834E-01+
*       -7.253688241E-01               0
GRID*               3235               03.3412356494E-018.8232794592E-01+
*       -9.021895569E-01               0
GRID*               3236               0-8.152439926E-015.8483934582E-01+
*       -2.971918543E-01               0
GRID*               3237               0-8.908932393E-014.6636220628E-01+
*       -3.013535882E-01               0
GRID*               3238               0-7.107457215E-015.3052876377E-01+
*       -3.799208825E-01               0
GRID*               3239               02.4200936152E-01-8.736204783E-01+
*       9.0661802426E-01               0
GRID*               3240               0-9.046300148E-014.0314853217E-01+
*       -3.902529263E-01               0
GRID*               3241               0-9.774492900E-015.3805360673E-01+
*       -4.111804049E-01               0
GRID*               3242               0-9.572043797E-014.9820087590E-01+
*       -5.384683874E-01               0
GRID*               3243               0-1.013986586E+002.6502794523E-01+
*       -3.801582929E-01               0
GRID*               3244               0-7.006501418E-017.0553967558E-01+
*       -9.057303650E-01               0
GRID*               3245               0-9.423620612E-013.7843060242E-01+
*       8.0511963903E-01               0
GRID*               3246               05.2570616251E-01-1.240894234E-01+
*       -7.999536429E-01               0
GRID*               3247               0-6.889824409E-01-5.776902330E-01+
*       2.7459461760E-03               0
GRID*               3248               0-7.346343912E-01-5.257570897E-01+
*       -9.215628670E-02               0
GRID*               3249               0-9.374314711E-013.4383914478E-01+
*       -4.812888559E-01               0
GRID*               3250               0-9.245640703E-013.8235679736E-01+
*       -6.668552879E-01               0
GRID*               3251               0-8.359526721E-013.6965734394E-01+
*       -5.794963268E-01               0
GRID*               3252               0-9.586491722E-012.8387399864E-01+
*       -5.763346591E-01               0
GRID*               3253               01.0678341253E-02-2.441927839E-01+
*       8.8219501063E-01               0
GRID*               3254               01.1813986934E-01-3.307329799E-01+
*       9.2500643887E-01               0
GRID*               3255               0-5.883192059E-03-2.888576954E-01+
*       -9.260138111E-01               0
GRID*               3256               04.2573019738E-01-9.980287289E-01+
*       2.4889840892E-01               0
GRID*               3257               0-9.909922049E-012.6005852318E-01+
*       7.9511922491E-01               0
GRID*               3258               0-3.546908519E-01-7.416085612E-01+
*       -6.678804272E-01               0
GRID*               3259               0-3.251482954E-02-4.196065121E-01+
*       -8.081748128E-01               0
GRID*               3260               04.0214065047E-013.1756622870E-01+
*       -8.238768912E-01               0
GRID*               3261               0-2.432076619E-012.9060739788E-02+
*       -8.199814738E-01               0
GRID*               3262               0-2.954971072E-011.0466211089E-01+
*       -8.527189845E-01               0
GRID*               3263               0-2.847729373E-013.9025534328E-03+
*       -8.909837178E-01               0
GRID*               3264               03.3681153110E-012.2462620457E-01+
*       -8.066291572E-01               0
GRID*               3265               02.8326859258E-01-7.114976343E-01+
*       -9.044841062E-01               0
GRID*               3266               0-1.417822433E-01-9.902596311E-01+
*       -3.857669977E-01               0
GRID*               3267               0-5.204880213E-02-1.017455602E+00+
*       -4.896788137E-01               0
GRID*               3268               0-8.582538746E-01-5.539754591E-01+
*       9.0187685504E-01               0
GRID*               3269               0-8.588728809E-01-2.657399375E-01+
*       8.0501716418E-01               0
GRID*               3270               0-9.185155299E-01-3.460078068E-01+
*       8.0365668078E-01               0
GRID*               3271               0-9.802622677E-01-1.962534232E-01+
*       7.6160457661E-01               0
GRID*               3272               0-4.950400544E-012.7789570625E-01+
*       9.2475985380E-01               0
GRID*               3273               0-1.156946554E-01-9.827658846E-01+
*       9.4063816707E-02               0
GRID*               3274               0-6.714263338E-016.5794326212E-01+
*       7.9579951355E-01               0
GRID*               3275               04.4844352752E-018.2746712782E-01+
*       -8.915098777E-01               0
GRID*               3276               0-8.417645142E-016.8071186984E-02+
*       -9.109396812E-01               0
GRID*               3277               07.2234970068E-018.2734107650E-01+
*       -4.020887116E-01               0
GRID*               3278               04.0381638308E-012.4893928948E-01+
*       8.1070058419E-01               0
GRID*               3279               03.3696303503E-012.5431680856E-01+
*       7.4071718265E-01               0
GRID*               3280               0-1.373223079E-01-4.477351747E-01+
*       9.0998686176E-01               0
GRID*               3281               0-6.812821259E-01-8.307351167E-01+
*       6.4368454960E-02               0
GRID*               3282               0-1.973732932E-011.6713314252E-01+
*       -7.115130940E-01               0
GRID*               3283               0-2.527888985E-01-4.332397346E-01+
*       9.1353594144E-01               0
GRID*               3284               0-2.193964096E-017.1935867158E-01+
*       9.1324514072E-01               0
GRID*               3285               0-9.976343352E-01-1.525102516E-01+
*       -9.022756747E-01               0
GRID*               3286               0-3.518941904E-015.6716108322E-01+
*       -9.085550411E-01               0
GRID*               3287               0-6.371551170E-014.3017566124E-01+
*       -9.345398111E-01               0
GRID*               3288               0-1.006964925E+002.6432873714E-01+
*       -9.205438297E-01               0
GRID*               3289               0-3.209599118E-021.2035157888E-01+
*       -8.244382782E-01               0
GRID*               3290               04.1629418687E-01-5.274698509E-01+
*       -9.050640012E-01               0
GRID*               3291               09.3186334021E-011.8520546705E-01+
*       -9.431465267E-01               0
GRID*               3292               09.4367979882E-015.8081525451E-02+
*       -9.048802380E-01               0
GRID*               3293               07.9450412449E-01-2.792715870E-01+
*       -9.122598147E-01               0
GRID*               3294               0-6.572666356E-015.9082415979E-01+
*       2.7604328134E-01               0
GRID*               3295               0-1.033211506E+004.0066444045E-02+
*       1.1834846740E-01               0
GRID*               3296               0-1.118537430E+00-7.697877237E-03+
*       -1.320595240E-01               0
GRID*               3297               08.1856972187E-01-2.913864887E-01+
*       -2.052859314E-01               0
GRID*               3298               02.2261218500E-012.4238601762E-01+
*       -7.915487975E-01               0
GRID*               3299               03.8073954440E-014.4786604218E-01+
*       -8.009155520E-01               0
GRID*               3300               0-2.497074969E-018.4908468686E-01+
*       -3.951468678E-01               0
GRID*               3301               01.0815242210E+00-2.238101535E-01+
*       -4.496053792E-01               0
GRID*               3302               08.2749399345E-01-7.569008491E-01+
*       -6.943717885E-01               0
GRID*               3303               03.0044040081E-014.3895211692E-02+
*       -8.105212557E-01               0
GRID*               3304               02.5225056019E-011.4414990053E-02+
*       -9.266865540E-01               0
GRID*               3305               03.3903738458E-011.2008738250E-01+
*       -9.107324913E-01               0
GRID*               3306               07.4273884957E-01-7.866504208E-01+
*       -6.903821720E-01               0
GRID*               3307               0-2.498565587E-02-6.525676833E-02+
*       -7.891140954E-01               0
GRID*               3308               05.8445982936E-01-6.255668157E-01+
*       -8.922310437E-01               0
GRID*               3309               06.4693514807E-01-9.182170489E-01+
*       6.4732336872E-01               0
GRID*               3310               08.6588327195E-012.8116429854E-01+
*       -5.061090797E-01               0
GRID*               3311               08.5443942230E-013.2078360138E-01+
*       -3.937644187E-01               0
GRID*               3312               0-9.582398503E-01-2.821041493E-01+
*       -8.023775494E-01               0
GRID*               3313               0-1.086027668E+00-2.617877897E-01+
*       -7.843512028E-01               0
GRID*               3314               0-1.041117490E+00-4.042824287E-01+
*       -7.771606237E-01               0
GRID*               3315               0-2.822464598E-019.5604367064E-01+
*       -7.687622614E-01               0
GRID*               3316               0-2.858106672E-011.0927777054E+00+
*       -7.055729556E-01               0
GRID*               3317               0-2.688974098E-011.0783945522E+00+
*       -8.481640360E-01               0
GRID*               3318               0-4.183069839E-011.0003363073E+00+
*       -7.254950772E-01               0
GRID*               3319               0-4.500407533E-015.8502595077E-01+
*       -7.732572482E-01               0
GRID*               3320               0-4.338254013E-016.2318138622E-01+
*       -9.141544586E-01               0
GRID*               3321               0-4.420253671E-015.2452675372E-01+
*       -9.127244590E-01               0
GRID*               3322               0-1.893434075E-019.0726013363E-01+
*       -8.203548328E-01               0
GRID*               3323               01.6377949856E-011.0905287874E+00+
*       -7.804627234E-01               0
GRID*               3324               0-8.138159611E-014.6593795628E-01+
*       -5.078179226E-01               0
GRID*               3325               0-8.352924578E-016.4452892403E-01+
*       -4.212438485E-01               0
GRID*               3326               0-1.642151449E-01-9.130935078E-01+
*       -9.242279894E-01               0
GRID*               3327               0-4.411826088E-017.6011893101E-01+
*       2.7717125016E-01               0
GRID*               3328               0-3.694197614E-018.0726448170E-01+
*       3.8048988900E-01               0
GRID*               3329               0-4.163521968E-011.5303678951E-01+
*       -8.018134406E-01               0
GRID*               3330               0-5.904753259E-01-9.497169673E-01+
*       4.8011043191E-01               0
GRID*               3331               0-4.383975043E-01-1.034080165E+00+
*       5.1052136227E-01               0
GRID*               3332               0-4.055182957E-01-1.049618305E+00+
*       6.1363417659E-01               0
GRID*               3333               07.8929427661E-014.3217240335E-01+
*       -3.858983714E-01               0
GRID*               3334               05.2674690030E-017.6639501238E-01+
*       -9.035761148E-01               0
GRID*               3335               05.0000378373E-01-7.874325023E-01+
*       -9.023970919E-01               0
GRID*               3336               03.4754982543E-01-7.643407340E-01+
*       -8.059386903E-01               0
GRID*               3337               03.8646965166E-01-7.441439243E-01+
*       -8.974968871E-01               0
GRID*               3338               03.8267972447E-01-8.606337736E-01+
*       -8.996560097E-01               0
GRID*               3339               02.7707452100E-01-8.106891601E-01+
*       -9.116605554E-01               0
GRID*               3340               0-1.001892086E+006.0178061627E-02+
*       -4.068819364E-01               0
GRID*               3341               03.1911920594E-01-7.806704043E-01+
*       8.0958661002E-01               0
GRID*               3342               08.2422653668E-01-7.520565426E-01+
*       -4.011022614E-01               0
GRID*               3343               07.0582705226E-01-8.522270238E-01+
*       -4.916082079E-01               0
GRID*               3344               07.1875961234E-01-8.671743048E-01+
*       -7.944545330E-01               0
GRID*               3345               03.0189581551E-012.7042148336E-01+
*       8.3089394082E-01               0
GRID*               3346               05.9135018363E-017.0070831449E-01+
*       -6.882911825E-01               0
GRID*               3347               07.7495383875E-017.7896469908E-01+
*       -5.692525729E-01               0
GRID*               3348               07.9836205618E-013.3961037547E-01+
*       -9.123917264E-01               0
GRID*               3349               03.9231859705E-01-9.118526495E-01+
*       -3.795682043E-01               0
GRID*               3350               05.5346455498E-01-9.618775982E-01+
*       -2.920857869E-01               0
GRID*               3351               03.7990760084E-01-9.132828402E-01+
*       -2.798319578E-01               0
GRID*               3352               09.2071653022E-01-6.394428247E-01+
*       -8.646308223E-01               0
GRID*               3353               04.3282741090E-025.2984820300E-01+
*       8.0875348747E-01               0
GRID*               3354               0-1.495627796E-025.4497359849E-01+
*       9.0579430078E-01               0
GRID*               3355               04.1631778546E-024.5230279093E-01+
*       9.0544406334E-01               0
GRID*               3356               04.3799202663E-02-8.899443957E-01+
*       1.8029470482E-01               0
GRID*               3357               01.8388204558E-01-8.701337541E-01+
*       1.8438792673E-01               0
GRID*               3358               0-1.123004285E+006.4349921280E-02+
*       6.5757530709E-01               0
GRID*               3359               0-4.582444070E-019.3158113653E-01+
*       -6.162272867E-01               0
GRID*               3360               0-3.109368147E-019.9327072206E-01+
*       -6.261503737E-01               0
GRID*               3361               0-3.220830629E-018.3646800176E-01+
*       -5.916956049E-01               0
GRID*               3362               08.1713614421E-01-3.131351313E-01+
*       1.9478334233E-01               0
GRID*               3363               0-3.799358093E-018.0807324571E-01+
*       -6.916099519E-01               0
GRID*               3364               0-4.103048025E-01-1.027414007E+00+
*       7.3412589855E-01               0
GRID*               3365               0-2.255536503E-016.3898990088E-01+
*       -8.088400627E-01               0
GRID*               3366               0-4.553794848E-02-3.174012466E-01+
*       -6.957711290E-01               0
GRID*               3367               08.8802370391E-013.7249276055E-01+
*       -9.021463620E-01               0
GRID*               3368               09.9663167109E-01-4.998734805E-01+
*       -8.691113268E-01               0
GRID*               3369               0-3.888662120E-017.3724605727E-01+
*       -8.099447592E-01               0
GRID*               3370               0-5.703419648E-018.0526107374E-01+
*       -6.738018284E-01               0
GRID*               3371               0-6.802201578E-01-8.980773532E-01+
*       5.6774736184E-01               0
GRID*               3372               0-7.746578520E-01-2.392717185E-01+
*       9.0807867137E-01               0
GRID*               3373               0-7.224101208E-01-1.183067584E-01+
*       8.9036423498E-01               0
GRID*               3374               0-4.800886911E-017.4964832850E-01+
*       -7.439345666E-01               0
GRID*               3375               0-3.075215824E-023.7251496757E-01+
*       9.3388717491E-01               0
GRID*               3376               0-1.123507175E+006.3729691347E-02+
*       8.5595160979E-01               0
GRID*               3377               09.3082958035E-016.2176982383E-01+
*       6.8732679776E-01               0
GRID*               3378               01.4428451936E-016.7990880339E-01+
*       6.8828335905E-01               0
GRID*               3379               07.1651702442E-01-2.224648521E-01+
*       6.8966242767E-01               0
GRID*               3380               05.1676333290E-011.6015688825E-01+
*       9.0762420638E-01               0
GRID*               3381               05.7102694116E-021.6574603182E-01+
*       9.2312382939E-01               0
GRID*               3382               0-8.302051965E-019.0294378502E-02+
*       9.1206728981E-01               0
GRID*               3383               0-8.589559939E-01-1.565845019E-02+
*       9.0698862235E-01               0
GRID*               3384               0-1.096754947E+00-1.734576036E-01+
*       7.9793542523E-01               0
GRID*               3385               0-9.131556302E-01-1.360950569E-01+
*       8.9850924741E-01               0
GRID*               3386               06.0194787122E-01-8.302167644E-01+
*       -9.011660039E-01               0
GRID*               3387               09.2782475847E-01-6.198834220E-01+
*       -3.794430815E-01               0
GRID*               3388               09.0777676468E-01-6.471189002E-01+
*       -5.876479838E-01               0
GRID*               3389               0-5.786921632E-01-6.605493678E-01+
*       -7.451580307E-01               0
GRID*               3390               0-4.835406407E-01-1.007525544E+00+
*       -5.779757494E-01               0
GRID*               3391               0-6.207703795E-01-1.306022894E-01+
*       9.0545009854E-01               0
GRID*               3392               0-1.946730408E-01-5.051659583E-01+
*       9.1327845735E-01               0
GRID*               3393               0-1.022044348E+004.8259148483E-01+
*       6.9725048146E-01               0
GRID*               3394               0-9.461690295E-012.7900473794E-01+
*       6.7695854754E-01               0
GRID*               3395               0-1.050112038E+003.6071688259E-01+
*       6.7949629338E-01               0
GRID*               3396               08.5240996366E-01-2.756696074E-02+
*       9.0253075787E-01               0
GRID*               3397               0-5.420054502E-01-5.464951044E-01+
*       -7.895079045E-01               0
GRID*               3398               05.0067601720E-011.0877129106E-01+
*       7.2472136609E-01               0
GRID*               3399               06.2232628030E-011.3064950334E-01+
*       7.1135496417E-01               0
GRID*               3400               0-4.034722792E-01-7.693605595E-01+
*       -7.816447938E-01               0
GRID*               3401               0-1.954161472E-018.2739394637E-01+
*       -9.238045765E-01               0
GRID*               3402               0-6.619731035E-015.9998464146E-01+
*       9.9687948859E-02               0
GRID*               3403               0-9.516940528E-01-1.967972406E-02+
*       9.3147324285E-01               0
GRID*               3404               0-9.878196422E-013.3338620762E-01+
*       -7.352458483E-01               0
GRID*               3405               0-8.723317595E-012.3824134270E-01+
*       -8.002757780E-01               0
GRID*               3406               0-1.008528041E+001.7376934379E-01+
*       -7.637356108E-01               0
GRID*               3407               0-1.016248288E+002.6730235210E-01+
*       -8.023058763E-01               0
GRID*               3408               0-8.291756015E-01-7.277043753E-01+
*       -7.583551856E-02               0
GRID*               3409               0-8.713075007E-01-6.870304903E-01+
*       -2.175522400E-01               0
GRID*               3410               0-5.651375844E-021.2013743113E-01+
*       7.0704866522E-01               0
GRID*               3411               0-1.138329145E-014.7963128057E-02+
*       7.3425749486E-01               0
GRID*               3412               0-6.270267587E-018.2743625662E-01+
*       -9.143229885E-01               0
GRID*               3413               0-1.085202597E+002.9576300830E-01+
*       -5.769534953E-01               0
GRID*               3414               0-1.075949701E+002.6578680262E-01+
*       -7.175665161E-01               0
GRID*               3415               0-9.802756544E-011.2822844703E-01+
*       -5.658233351E-01               0
GRID*               3416               0-1.003630022E+004.9350810775E-01+
*       -6.917818345E-01               0
GRID*               3417               0-9.809012017E-01-5.185096555E-01+
*       1.2113813465E-01               0
GRID*               3418               0-2.245901324E-012.7010077445E-01+
*       9.1887846430E-01               0
GRID*               3419               0-9.749026231E-01-1.490544799E-02+
*       6.2452981507E-01               0
GRID*               3420               0-1.167744390E-01-7.725813018E-01+
*       9.0737884809E-01               0
GRID*               3421               04.9441537682E-01-8.401969099E-01+
*       -3.781328958E-01               0
GRID*               3422               04.1492484712E-028.4703118368E-01+
*       -9.050802154E-01               0
GRID*               3423               05.1959711111E-01-8.274755218E-01+
*       -2.513487566E-01               0
GRID*               3424               04.5844344209E-01-7.443877870E-01+
*       -1.772571162E-01               0
GRID*               3425               06.6139373931E-01-5.788047390E-01+
*       -4.266203319E-01               0
GRID*               3426               03.5037476610E-011.0326639637E+00+
*       5.0534868492E-01               0
GRID*               3427               0-7.784136316E-01-6.182990966E-01+
*       -3.035653784E-01               0
GRID*               3428               0-3.251705946E-01-1.502601002E-01+
*       9.2145103134E-01               0
GRID*               3429               0-8.630703220E-015.0361087638E-01+
*       -6.337832228E-01               0
GRID*               3430               0-9.200946537E-011.7042735943E-01+
*       -6.795220372E-01               0
GRID*               3431               0-3.439083725E-016.6108981774E-01+
*       -9.068593383E-01               0
GRID*               3432               0-1.740428373E-01-4.583868339E-01+
*       8.1012018121E-01               0
GRID*               3433               06.2317033798E-01-6.360415289E-01+
*       9.8843526928E-02               0
GRID*               3434               02.2101936198E-027.1034046894E-02+
*       8.5821898061E-01               0
GRID*               3435               0-8.136127905E-011.1762584918E-01+
*       -7.144794161E-01               0
GRID*               3436               0-8.661978525E-01-8.902557871E-03+
*       -7.346509398E-01               0
GRID*               3437               03.7685062411E-01-8.020397545E-01+
*       -1.032434966E-01               0
GRID*               3438               0-9.892007702E-015.6874770863E-02+
*       -6.725061111E-01               0
GRID*               3439               0-8.523221106E-011.4498995425E-01+
*       -8.110609999E-01               0
GRID*               3440               09.9746535997E-021.1017218697E+00+
*       3.2695293540E-03               0
GRID*               3441               03.7533968696E-021.0018580542E+00+
*       -2.716785869E-03               0
GRID*               3442               04.5415902719E-021.1202137930E+00+
*       9.8642008871E-02               0
GRID*               3443               0-9.928983951E-021.1194082613E+00+
*       -2.573901288E-02               0
GRID*               3444               0-7.874053183E-01-4.988101268E-01+
*       -8.989752683E-01               0
GRID*               3445               0-7.598713807E-01-3.962260888E-01+
*       -9.073240834E-01               0
GRID*               3446               0-6.664387225E-01-4.829598400E-01+
*       -9.209175038E-01               0
GRID*               3447               0-1.268950388E-021.0979923583E+00+
*       -9.942882396E-02               0
GRID*               3448               0-3.931038198E-01-3.905270413E-01+
*       -9.089582088E-01               0
GRID*               3449               07.0918052310E-011.0313770323E-01+
*       8.8214518808E-01               0
GRID*               3450               09.6517487387E-01-1.360988542E-01+
*       -2.800842873E-01               0
GRID*               3451               09.6553143534E-019.7440503280E-02+
*       -2.844842813E-01               0
GRID*               3452               05.5021778215E-017.0878271428E-01+
*       -1.772577637E-01               0
GRID*               3453               01.2553821927E-019.8826598090E-01+
*       1.0159886295E-01               0
GRID*               3454               09.7844630141E-01-7.556799151E-03+
*       -1.859728430E-01               0
GRID*               3455               04.5466760262E-01-8.636339016E-01+
*       -6.000291478E-01               0
GRID*               3456               04.0451972449E-01-6.990659135E-01+
*       -6.963629848E-01               0
GRID*               3457               04.9698803868E-015.8255702198E-01+
*       -7.941294811E-01               0
GRID*               3458               04.7383103093E-016.8634068005E-01+
*       -8.102506472E-01               0
GRID*               3459               0-8.814747967E-01-5.114879357E-01+
*       -5.057614191E-01               0
GRID*               3460               0-8.338969014E-01-7.304174626E-01+
*       -4.266705617E-01               0
GRID*               3461               0-7.425770599E-01-7.844366642E-01+
*       -4.815041020E-01               0
GRID*               3462               07.6009051316E-018.2487060078E-01+
*       -6.935245842E-01               0
GRID*               3463               07.3675400371E-016.6968492893E-01+
*       -6.902601995E-01               0
GRID*               3464               06.8128965731E-017.8910422564E-01+
*       -7.993546606E-01               0
GRID*               3465               0-7.233534792E-01-4.771376314E-01+
*       -6.859853449E-01               0
GRID*               3466               0-8.325559066E-01-5.721162245E-01+
*       -4.029821320E-01               0
GRID*               3467               05.1249449012E-01-5.279274689E-01+
*       9.0971443190E-01               0
GRID*               3468               02.3226360180E-01-5.906375811E-01+
*       9.2420622214E-01               0
GRID*               3469               0-8.901337407E-02-8.741217583E-01+
*       -6.470478964E-01               0
GRID*               3470               0-2.083563163E-019.6299004299E-01+
*       6.0601405137E-01               0
GRID*               3471               0-2.826965491E-011.0481473930E+00+
*       6.6917925004E-01               0
GRID*               3472               0-3.500725286E-019.5535941271E-01+
*       5.9430724348E-01               0
GRID*               3473               03.0700334506E-01-6.207977976E-01+
*       9.0954781182E-01               0
GRID*               3474               0-1.925053794E-01-7.569998993E-01+
*       -6.909429424E-01               0
GRID*               3475               01.8880412569E-02-9.221417067E-01+
*       -5.122994458E-01               0
GRID*               3476               0-7.746105175E-01-2.806066127E-01+
*       -7.102088850E-01               0
GRID*               3477               0-6.280998973E-01-1.747432504E-01+
*       -9.190042469E-01               0
GRID*               3478               08.1041474717E-01-5.890505705E-01+
*       -7.221547124E-04               0
GRID*               3479               08.4809900702E-01-5.116671968E-01+
*       -9.868421580E-02               0
GRID*               3480               05.7115728447E-01-6.775553813E-01+
*       1.9065311536E-01               0
GRID*               3481               0-6.789335524E-01-6.937623941E-01+
*       -2.025175720E-01               0
GRID*               3482               0-6.375740476E-01-6.289197886E-01+
*       -7.786603604E-02               0
GRID*               3483               01.2601503644E-016.8732826798E-01+
*       -9.279047286E-01               0
GRID*               3484               05.2212604474E-01-7.556966835E-01+
*       -6.179896492E-01               0
GRID*               3485               0-8.541550160E-02-3.481349975E-02+
*       8.6997963293E-01               0
GRID*               3486               0-1.629511369E-01-1.061358168E-01+
*       8.9185516228E-01               0
GRID*               3487               09.5976441428E-01-2.188322393E-01+
*       2.9167389296E-01               0
GRID*               3488               07.5462607029E-01-1.048123607E-01+
*       5.9838706842E-01               0
GRID*               3489               0-3.104159341E-012.9587388121E-01+
*       9.2434372870E-01               0
GRID*               3490               0-2.906282064E-013.0907429410E-01+
*       -7.958231467E-01               0
GRID*               3491               06.1225041313E-01-7.483684966E-01+
*       7.7265730204E-01               0
GRID*               3492               05.3846783135E-01-6.007067352E-01+
*       8.0726741733E-01               0
GRID*               3493               04.6885332795E-017.4513315433E-01+
*       -7.081565327E-01               0
GRID*               3494               05.4624905615E-017.9918302630E-01+
*       -7.822238603E-01               0
GRID*               3495               02.1875373131E-01-2.482057160E-01+
*       9.4126326371E-01               0
GRID*               3496               0-4.460374461E-01-8.798085157E-01+
*       2.7457419766E-01               0
GRID*               3497               0-4.156318803E-013.3166525819E-01+
*       -9.309057256E-01               0
GRID*               3498               0-5.686351964E-029.1368910265E-01+
*       6.6754540111E-01               0
GRID*               3499               0-2.100861755E-013.5350564346E-01+
*       -9.161517955E-01               0
GRID*               3500               0-1.165706826E-019.2543083658E-01+
*       5.3239924880E-01               0
GRID*               3501               08.4006879117E-029.0015104184E-01+
*       7.2176432498E-01               0
GRID*               3502               0-5.035435458E-018.5524004938E-01+
*       3.8369843210E-01               0
GRID*               3503               0-6.355081983E-017.7018026266E-01+
*       4.0671898479E-01               0
GRID*               3504               0-6.482067449E-019.0926405270E-01+
*       4.2080266074E-01               0
GRID*               3505               0-5.753341978E-018.0816802919E-01+
*       2.8361419792E-01               0
GRID*               3506               0-3.347657653E-018.9054041478E-01+
*       4.9805423550E-01               0
GRID*               3507               01.7757579583E-01-4.050553918E-01+
*       9.1849491887E-01               0
GRID*               3508               0-5.217014812E-017.4647780246E-01+
*       5.7243989628E-01               0
GRID*               3509               0-5.057639114E-017.3490366415E-01+
*       3.9983243853E-01               0
GRID*               3510               0-5.800137628E-018.1639681408E-01+
*       4.9498286552E-01               0
GRID*               3511               0-3.940273295E-017.8788576145E-01+
*       5.6734972710E-01               0
GRID*               3512               0-2.981592965E-018.6084097054E-01+
*       6.5896166884E-01               0
GRID*               3513               0-4.417397513E-019.0131248450E-01+
*       4.8007655820E-01               0
GRID*               3514               0-4.973009829E-014.4701590985E-01+
*       9.0278264422E-01               0
GRID*               3515               0-8.568712696E-01-2.372150489E-01+
*       2.0435636290E-01               0
GRID*               3516               0-9.865176998E-01-1.389862611E-01+
*       9.9482265621E-02               0
GRID*               3517               0-3.850131076E-017.2322661963E-01+
*       6.9998790731E-01               0
GRID*               3518               04.2864597576E-01-8.954172739E-01+
*       -4.905216386E-01               0
GRID*               3519               03.3465070424E-01-9.390477816E-01+
*       7.3299512863E-01               0
GRID*               3520               0-1.209431880E-01-2.475743467E-01+
*       -7.176637230E-01               0
GRID*               3521               02.5788637721E-019.6198698701E-01+
*       -7.791874254E-01               0
GRID*               3522               01.8593962321E-01-6.795857239E-01+
*       -9.220903649E-01               0
GRID*               3523               02.3929331572E-017.2601938623E-01+
*       -9.274390612E-01               0
GRID*               3524               01.2867320744E-017.7857070188E-01+
*       -9.246700110E-01               0
GRID*               3525               02.6631970703E-013.4029136136E-01+
*       9.1758039959E-01               0
GRID*               3526               04.4917004253E-01-9.161321926E-01+
*       -2.676871052E-03               0
GRID*               3527               05.0076052568E-02-4.576480038E-01+
*       -9.183747071E-01               0
GRID*               3528               05.5370726732E-01-8.167641471E-01+
*       -1.064490580E-01               0
GRID*               3529               02.6855099051E-01-9.540145888E-01+
*       -3.875777508E-01               0
GRID*               3530               07.8198405679E-015.8287340209E-01+
*       -2.810911751E-01               0
GRID*               3531               08.3062365539E-015.3592315452E-01+
*       -1.911454980E-01               0
GRID*               3532               0-3.050048815E-02-3.947347956E-01+
*       -9.253491704E-01               0
GRID*               3533               0-5.697353822E-016.9638116942E-01+
*       4.8506049797E-01               0
GRID*               3534               0-5.082028567E-017.2528492445E-01+
*       7.0396240237E-01               0
GRID*               3535               0-5.001335026E-018.6814231841E-01+
*       1.9368686606E-01               0
GRID*               3536               0-6.887582990E-017.1272593534E-01+
*       2.7829140608E-01               0
GRID*               3537               05.2318361483E-021.1151129344E+00+
*       -1.740052822E-01               0
GRID*               3538               01.5187833062E-011.1110850484E+00+
*       -2.564465496E-01               0
GRID*               3539               0-5.589537413E-01-2.559649833E-01+
*       -9.121968606E-01               0
GRID*               3540               02.6904478385E-01-9.613863925E-01+
*       -4.688351342E-03               0
GRID*               3541               03.5298529789E-01-9.234434203E-01+
*       1.0159651016E-01               0
GRID*               3542               03.2113953107E-01-9.391927492E-01+
*       -1.401490127E-01               0
GRID*               3543               04.9100669077E-01-9.926340981E-01+
*       -3.871687626E-01               0
GRID*               3544               0-2.472823367E-011.0610856908E-01+
*       7.1942459181E-01               0
GRID*               3545               0-1.975947227E-011.7353581635E-01+
*       7.8079334584E-01               0
GRID*               3546               0-6.293456415E-02-9.849546116E-01+
*       1.9415396871E-01               0
GRID*               3547               01.0804864982E-01-9.868514922E-01+
*       1.9785405887E-01               0
GRID*               3548               02.8047699125E-02-9.940382842E-01+
*       9.5222617761E-02               0
GRID*               3549               0-2.665327362E-02-9.015931418E-01+
*       8.1383429466E-02               0
GRID*               3550               01.1674274042E-019.8435699375E-01+
*       -1.921227075E-01               0
GRID*               3551               0-7.135551361E-016.9969207696E-01+
*       -3.022157736E-01               0
GRID*               3552               03.4090492046E-01-8.092667468E-01+
*       -2.268053576E-01               0
GRID*               3553               02.9199268609E-01-8.175783705E-01+
*       -3.465259778E-01               0
GRID*               3554               02.3306817751E-01-9.726627682E-01+
*       -2.922377675E-01               0
GRID*               3555               04.9646750916E-01-9.812852765E-01+
*       -1.637389386E-01               0
GRID*               3556               01.1002444573E+002.4100446632E-01+
*       8.0446533802E-01               0
GRID*               3557               09.8772971951E-01-6.839575935E-02+
*       3.1172074930E-01               0
GRID*               3558               09.9717979128E-012.2008581363E-03+
*       1.7761508678E-01               0
GRID*               3559               02.9397031784E-01-8.943039353E-01+
*       -8.028749402E-01               0
GRID*               3560               04.0328525778E-01-9.350859714E-01+
*       -7.799383136E-01               0
GRID*               3561               02.9853771419E-01-9.914348781E-01+
*       -7.105190502E-01               0
GRID*               3562               08.9246183287E-014.4237102062E-01+
*       -5.692848493E-01               0
GRID*               3563               08.6661244416E-014.5635290410E-01+
*       -4.564125085E-01               0
GRID*               3564               07.5791719435E-014.6355901235E-01+
*       -6.051317935E-01               0
GRID*               3565               08.6050820481E-014.6365569310E-01+
*       5.5580773453E-01               0
GRID*               3566               07.3227124797E-014.4219773465E-01+
*       7.5974717920E-01               0
GRID*               3567               08.2883662339E-015.4734862111E-01+
*       6.4212309522E-01               0
GRID*               3568               01.4097027726E-02-9.435739281E-01+
*       -6.772514756E-01               0
GRID*               3569               09.9416650122E-01-2.958299685E-01+
*       -3.058161769E-01               0
GRID*               3570               09.6669147562E-01-2.647343733E-01+
*       -1.590504431E-01               0
GRID*               3571               09.7143572933E-01-1.396961024E-01+
*       8.0039235781E-01               0
GRID*               3572               01.0122461504E+00-4.160336319E-02+
*       8.1111970320E-01               0
GRID*               3573               06.8526389961E-02-1.107196112E+00+
*       6.2343511705E-01               0
GRID*               3574               01.4800272268E-01-1.078381758E+00+
*       6.6782273004E-01               0
GRID*               3575               02.2881250366E-01-1.092185026E+00+
*       5.6440096897E-01               0
GRID*               3576               01.8878312697E-01-9.754005837E-01+
*       6.5600702071E-01               0
GRID*               3577               0-1.419367494E-01-9.710769333E-01+
*       2.7887292898E-01               0
GRID*               3578               0-1.739407901E-01-1.098065392E+00+
*       2.0390811897E-01               0
GRID*               3579               0-2.955846134E-01-9.325591517E-01+
*       2.1601184465E-01               0
GRID*               3580               0-3.682498294E-01-1.053664756E+00+
*       2.1086752498E-01               0
GRID*               3581               0-1.713250362E-01-9.717735282E-01+
*       -6.442166762E-03               0
GRID*               3582               0-2.038434407E-01-1.106060863E+00+
*       1.1555830515E-01               0
GRID*               3583               02.6789295136E-01-9.525272609E-01+
*       2.0138672537E-01               0
GRID*               3584               01.9461984748E-01-1.105746491E+00+
*       1.7159499416E-01               0
GRID*               3585               02.7202814467E-013.4400970099E-02+
*       8.2748954533E-01               0
GRID*               3586               09.8171095191E-01-2.237425771E-01+
*       -8.073083890E-01               0
GRID*               3587               08.8972150299E-01-1.630894343E-01+
*       -8.039807841E-01               0
GRID*               3588               03.9191704472E-01-8.563258183E-02+
*       8.0284261390E-01               0
GRID*               3589               09.5600254110E-02-6.985645929E-01+
*       8.0018557765E-01               0
GRID*               3590               01.1555288110E-01-4.686366762E-01+
*       8.1285358222E-01               0
GRID*               3591               0-7.524117456E-015.1417850066E-01+
*       7.5760887400E-01               0
GRID*               3592               0-7.860780224E-016.0752024987E-01+
*       7.6487096301E-01               0
GRID*               3593               0-1.276262029E-012.9844468309E-01+
*       -9.145904359E-01               0
GRID*               3594               0-8.756815005E-01-4.729834594E-01+
*       4.9846060278E-01               0
GRID*               3595               0-8.574068754E-01-2.474630319E-01+
*       6.7575205183E-01               0
GRID*               3596               0-9.699744542E-01-2.274798185E-01+
*       6.0835769554E-01               0
GRID*               3597               0-9.275488394E-01-3.801405535E-01+
*       6.1021199452E-01               0
GRID*               3598               01.1013596241E+00-5.072037493E-02+
*       2.0649685459E-01               0
GRID*               3599               0-2.986189013E-01-6.702302246E-01+
*       9.2338478582E-01               0
GRID*               3600               0-1.913640210E-01-3.262444321E-01+
*       9.1118905900E-01               0
GRID*               3601               01.8999288332E-01-9.654213515E-01+
*       2.9179840800E-01               0
GRID*               3602               01.2307588116E-019.1095026335E-02+
*       -7.391094128E-01               0
GRID*               3603               02.8920625813E-01-8.338961304E-02+
*       9.3226413866E-01               0
GRID*               3604               01.1621707294E-01-1.113471797E+00+
*       8.7075266256E-02               0
GRID*               3605               01.1219031511E+00-3.100874445E-02+
*       -2.670550556E-01               0
GRID*               3606               01.0915871778E+007.4967166048E-02+
*       -3.500560267E-01               0
GRID*               3607               09.7159166053E-01-1.260492424E-01+
*       -4.483189290E-01               0
GRID*               3608               07.0166636258E-01-1.475396832E-01+
*       -9.061057825E-01               0
GRID*               3609               07.9366087853E-01-8.168073148E-02+
*       -9.307188385E-01               0
GRID*               3610               0-1.074337761E-015.5796354351E-01+
*       9.0745363456E-01               0
GRID*               3611               0-6.285637116E-024.6220401704E-01+
*       9.0644190098E-01               0
GRID*               3612               0-7.639649928E-01-6.296697796E-01+
*       8.1727287008E-01               0
GRID*               3613               0-8.785529312E-01-6.836535766E-01+
*       7.1634545739E-01               0
GRID*               3614               05.7884332407E-017.9715632426E-01+
*       -2.822390237E-01               0
GRID*               3615               01.0555104775E+00-2.845318080E-01+
*       1.9178003077E-01               0
GRID*               3616               03.8189009224E-019.0687148600E-01+
*       -1.647659969E-01               0
GRID*               3617               05.2547224495E-018.3341695861E-01+
*       -1.719019645E-01               0
GRID*               3618               01.8093990359E-01-9.817280731E-01+
*       -4.901680583E-01               0
GRID*               3619               03.2270057447E-01-2.374308575E-01+
*       9.3192837152E-01               0
GRID*               3620               02.2312731485E-01-9.748035749E-01+
*       -6.241797578E-01               0
GRID*               3621               0-1.726750487E-01-7.034594891E-01+
*       9.1766309533E-01               0
GRID*               3622               01.2173223622E-01-7.386886208E-01+
*       -9.270216136E-01               0
GRID*               3623               09.9079885186E-01-4.972752876E-01+
*       -1.459203651E-01               0
GRID*               3624               03.2521531281E-01-8.150250708E-01+
*       1.9730569118E-01               0
GRID*               3625               0-9.125023712E-014.6023124353E-01+
*       -7.978279665E-01               0
GRID*               3626               03.7996833916E-01-1.049016618E+00+
*       -3.570578665E-02               0
GRID*               3627               03.1797120947E-01-1.068534994E+00+
*       1.0873664427E-01               0
GRID*               3628               04.3083900117E-01-8.660656283E-01+
*       -7.127505299E-01               0
GRID*               3629               0-5.619754731E-019.3453163688E-01+
*       -5.644218244E-01               0
GRID*               3630               0-1.037767089E+00-4.360363816E-01+
*       8.3327460762E-01               0
GRID*               3631               0-5.335877565E-018.4136425259E-01+
*       -1.470704122E-01               0
GRID*               3632               05.8860855212E-01-8.285543352E-01+
*       -7.238264896E-01               0
GRID*               3633               0-6.231208563E-01-2.923977683E-01+
*       -8.245581745E-01               0
GRID*               3634               07.3706447202E-01-8.449597003E-01+
*       7.2133000721E-01               0
GRID*               3635               03.7652002642E-01-9.556926124E-01+
*       -6.132800157E-01               0
GRID*               3636               0-7.927623230E-011.9357939119E-01+
*       7.0152598171E-01               0
GRID*               3637               0-8.338570959E-012.8212480170E-01+
*       5.9862137703E-01               0
GRID*               3638               01.5708889174E-011.1099214505E+00+
*       5.0106441521E-01               0
GRID*               3639               01.0107560196E+004.7142397614E-01+
*       6.6876975458E-01               0
GRID*               3640               09.4844123632E-015.5160535433E-01+
*       5.7642330555E-01               0
GRID*               3641               07.7976112947E-011.8838167630E-01+
*       9.0318615054E-01               0
GRID*               3642               0-9.132851088E-01-2.333428710E-01+
*       -9.042209486E-01               0
GRID*               3643               0-8.511667206E-01-3.210848416E-01+
*       -9.123192471E-01               0
GRID*               3644               0-7.884100257E-01-2.258141447E-01+
*       -9.341610253E-01               0
GRID*               3645               02.4939905250E-011.0809230992E+00+
*       3.9510747470E-01               0
GRID*               3646               08.3425735756E-021.0152912837E-01+
*       8.2629753948E-01               0
GRID*               3647               08.4780392386E-021.5919906086E-01+
*       8.1947268086E-01               0
GRID*               3648               01.7654421786E-019.0924889932E-02+
*       7.9288982682E-01               0
GRID*               3649               04.3230611492E-01-3.306677038E-01+
*       -9.056834767E-01               0
GRID*               3650               0-7.683498530E-01-3.252594811E-01+
*       -9.290480278E-01               0
GRID*               3651               01.3571543430E-017.2630007143E-01+
*       7.9538459733E-01               0
GRID*               3652               04.7660122774E-027.9132020709E-01+
*       7.5064065756E-01               0
GRID*               3653               05.7744768727E-01-8.272908653E-01+
*       -4.954055265E-01               0
GRID*               3654               0-4.172398745E-01-1.462972453E-01+
*       9.1774649963E-01               0
GRID*               3655               0-2.351062032E-01-1.557296581E-01+
*       9.1613695207E-01               0
GRID*               3656               0-3.121435603E-01-9.322223516E-01+
*       6.3613323468E-01               0
GRID*               3657               0-2.522108254E-01-1.093989952E+00+
*       5.7358108730E-01               0
GRID*               3658               0-2.437470037E-01-1.077098483E+00+
*       7.1900002554E-01               0
GRID*               3659               0-2.103947851E-034.2782025186E-01+
*       -7.961042079E-01               0
GRID*               3660               02.1164272199E-023.2197962997E-01+
*       -8.384765821E-01               0
GRID*               3661               04.1148361773E-022.5767027474E-01+
*       -7.478526523E-01               0
GRID*               3662               0-4.786570791E-022.3353000250E-01+
*       -8.157592499E-01               0
GRID*               3663               07.6357540972E-014.5848350367E-01+
*       -7.802584730E-01               0
GRID*               3664               06.5925849955E-014.6718539732E-01+
*       -7.447923355E-01               0
GRID*               3665               08.7843762522E-015.7437809410E-01+
*       -6.806085879E-01               0
GRID*               3666               07.1829762462E-015.4706507096E-01+
*       -6.616806784E-01               0
GRID*               3667               06.4100952927E-01-5.022657687E-01+
*       7.7790640359E-01               0
GRID*               3668               06.0900906417E-01-3.802761494E-01+
*       8.0747931774E-01               0
GRID*               3669               0-1.544774562E-02-1.993248886E-01+
*       7.0984164974E-01               0
GRID*               3670               0-8.599405121E-017.0992438641E-01+
*       -3.105268671E-01               0
GRID*               3671               0-1.734144488E-01-1.113111391E+00+
*       6.6261421176E-01               0
GRID*               3672               0-8.088500788E-015.7185010760E-01+
*       2.1079221216E-03               0
GRID*               3673               0-3.086836654E-014.4820914630E-01+
*       9.2611293053E-01               0
GRID*               3674               01.9543208140E-02-5.275979282E-02+
*       -8.731020830E-01               0
GRID*               3675               0-7.676496855E-014.7816665577E-02+
*       -8.156896851E-01               0
GRID*               3676               0-7.466800102E-016.5704528254E-01+
*       1.8489370544E-01               0
GRID*               3677               0-9.001556805E-016.2323044900E-01+
*       8.7215810787E-02               0
GRID*               3678               0-1.664599346E-012.3891436639E-01+
*       8.3734782674E-01               0
GRID*               3679               06.1814919448E-019.3967429552E-01+
*       -1.119620057E-01               0
GRID*               3680               06.0605988164E-018.0393265453E-01+
*       -8.087790030E-02               0
GRID*               3681               0-5.565380987E-011.8186750186E-01+
*       9.0533688153E-01               0
GRID*               3682               0-1.034665098E+00-3.391317203E-01+
*       -9.459190020E-02               0
GRID*               3683               0-9.493683454E-01-3.558091878E-01+
*       1.0769534421E-02               0
GRID*               3684               04.9106773827E-01-1.647973803E-01+
*       8.1009604492E-01               0
GRID*               3685               04.5888912310E-02-8.781695944E-01+
*       8.9768126366E-01               0
GRID*               3686               08.4519152605E-02-7.965781184E-01+
*       9.0369758465E-01               0
GRID*               3687               0-5.284677836E-016.9410837503E-01+
*       -8.327662193E-01               0
GRID*               3688               0-5.060669170E-015.0048003181E-01+
*       -8.051713559E-01               0
GRID*               3689               0-5.323137361E-016.2276775760E-01+
*       -7.070203603E-01               0
GRID*               3690               0-1.015648541E+00-4.693667084E-01+
*       6.5958567396E-01               0
GRID*               3691               0-9.470686040E-01-4.815965845E-01+
*       7.5346230676E-01               0
GRID*               3692               0-9.892107115E-01-3.359195212E-01+
*       7.1021679689E-01               0
GRID*               3693               04.1466167752E-01-5.162697505E-01+
*       9.3385430485E-01               0
GRID*               3694               0-5.815396734E-015.6874614230E-01+
*       -8.053778659E-01               0
GRID*               3695               0-3.073269652E-01-5.052201814E-02+
*       6.8958291562E-01               0
GRID*               3696               0-2.100620277E-01-3.322998001E-02+
*       7.6261896649E-01               0
GRID*               3697               09.9283667345E-01-2.277508788E-01+
*       3.9297312833E-01               0
GRID*               3698               08.8976027109E-01-2.201610304E-01+
*       4.8477906925E-01               0
GRID*               3699               04.3094136804E-02-5.434434049E-01+
*       -8.183129471E-01               0
GRID*               3700               0-9.831610927E-01-1.057921491E-01+
*       -9.053835846E-02               0
GRID*               3701               01.0421495160E+001.1555281220E-01+
*       6.4039681844E-02               0
GRID*               3702               0-6.468576823E-01-4.562355013E-01+
*       8.1660247347E-01               0
GRID*               3703               0-4.872155537E-021.7597548497E-01+
*       -8.704003958E-01               0
GRID*               3704               04.5009907840E-022.4798725698E-01+
*       -8.433224415E-01               0
GRID*               3705               03.4303144047E-021.6663349918E-01+
*       -8.133060222E-01               0
GRID*               3706               02.7572604749E-012.6878142181E-01+
*       9.3152767482E-01               0
GRID*               3707               01.5011137185E-02-2.947509529E-01+
*       -8.037085076E-01               0
GRID*               3708               0-1.075082839E-02-2.132575184E-01+
*       -7.720436236E-01               0
GRID*               3709               03.5308185924E-011.0488973990E+00+
*       -4.878768900E-01               0
GRID*               3710               03.2573421862E-01-5.143969007E-01+
*       9.2042422492E-01               0
GRID*               3711               05.0043942373E-012.1718277017E-01+
*       8.0615681877E-01               0
GRID*               3712               0-8.638090263E-015.5303032060E-02+
*       7.3045680375E-01               0
GRID*               3713               0-7.535082705E-011.9697317795E-03+
*       7.8271969934E-01               0
GRID*               3714               0-2.555150542E-01-2.518360368E-01+
*       8.9911056279E-01               0
GRID*               3715               0-4.245878261E-018.2359469659E-01+
*       -9.050222636E-01               0
GRID*               3716               0-4.375676007E-017.2280242570E-01+
*       -9.251459579E-01               0
GRID*               3717               0-9.675590211E-01-5.519092378E-01+
*       3.8212117672E-01               0
GRID*               3718               01.0768758374E+002.0645426186E-01+
*       -6.893797804E-01               0
GRID*               3719               01.1010189388E+001.5155597300E-01+
*       -6.115044797E-01               0
GRID*               3720               08.7020817007E-01-4.887684934E-01+
*       -4.790613148E-01               0
GRID*               3721               0-1.092681635E+00-6.680314300E-02+
*       -2.943437177E-01               0
GRID*               3722               08.7587387716E-014.8216834814E-01+
*       -2.932857445E-01               0
GRID*               3723               08.6194203134E-01-2.708330041E-02+
*       5.6681175912E-01               0
GRID*               3724               08.5822452616E-01-1.235488594E-01+
*       6.9650434130E-01               0
GRID*               3725               07.8223965611E-01-1.178853372E-01+
*       8.1553669185E-01               0
GRID*               3726               08.7714434944E-01-1.896127704E-02+
*       8.0534158932E-01               0
GRID*               3727               06.1693460802E-01-7.958435695E-02+
*       8.0987894168E-01               0
GRID*               3728               07.3338580938E-013.4335185211E-02+
*       7.9969037331E-01               0
GRID*               3729               07.0061218656E-01-1.202726982E-01+
*       7.0849397251E-01               0
GRID*               3730               07.9574577470E-01-7.850187486E-01+
*       -5.710051924E-01               0
GRID*               3731               06.8701037024E-01-7.988696000E-01+
*       -9.215861890E-01               0
GRID*               3732               06.0999508236E-01-7.363643141E-01+
*       -3.505233516E-01               0
GRID*               3733               0-5.879197909E-017.7174687533E-01+
*       7.9941619452E-01               0
GRID*               3734               07.2887065818E-01-2.801693467E-01+
*       8.0916677230E-01               0
GRID*               3735               04.4473943493E-014.8699206721E-01+
*       -9.138401180E-01               0
GRID*               3736               04.7819759464E-02-6.893599184E-01+
*       9.0193424013E-01               0
GRID*               3737               0-6.359721828E-017.6492335750E-01+
*       -3.926628581E-01               0
GRID*               3738               0-5.545415967E-018.0880748018E-01+
*       -2.908801511E-01               0
GRID*               3739               06.3014254524E-01-7.599973084E-01+
*       2.8504772745E-01               0
GRID*               3740               02.3158514126E-015.2815221643E-01+
*       -9.124033967E-01               0
GRID*               3741               07.1248726774E-023.5605196040E-01+
*       9.0652252969E-01               0
GRID*               3742               08.8514856532E-013.1993340975E-01+
*       7.9759542303E-01               0
GRID*               3743               07.4053382609E-012.9942486516E-01+
*       9.0370208318E-01               0
GRID*               3744               07.5260123020E-018.2844491333E-01+
*       6.1234840081E-02               0
GRID*               3745               07.1458627194E-018.7502773812E-01+
*       1.9906167309E-01               0
GRID*               3746               01.3719952162E-01-1.104210964E+00+
*       -1.788786301E-01               0
GRID*               3747               01.0653406227E-01-9.833427853E-01+
*       -2.761791125E-01               0
GRID*               3748               0-7.252996082E-03-7.723163355E-01+
*       9.0416519304E-01               0
GRID*               3749               0-6.220012755E-02-7.069173604E-01+
*       9.1633739519E-01               0
GRID*               3750               0-1.444242439E-02-7.827281063E-01+
*       -8.056326410E-01               0
GRID*               3751               0-8.949582883E-02-6.581529517E-01+
*       -8.003428512E-01               0
GRID*               3752               02.5028173706E-02-6.391445226E-01+
*       -8.143592005E-01               0
GRID*               3753               02.1175901491E-01-5.085556694E-01+
*       9.0909270283E-01               0
GRID*               3754               03.5707759102E-01-3.277785770E-01+
*       9.0535154746E-01               0
GRID*               3755               03.6534250465E-011.2261177100E-01+
*       8.2193450985E-01               0
GRID*               3756               06.3188267759E-013.5960842171E-01+
*       -9.290060389E-01               0
GRID*               3757               03.1327236873E-011.8911495082E-01+
*       9.1862681929E-01               0
GRID*               3758               0-7.504273013E-01-1.249561913E-01+
*       7.4454103745E-01               0
GRID*               3759               06.1188277973E-016.6495240042E-01+
*       9.0176333882E-01               0
GRID*               3760               01.0938602287E+001.3528005231E-01+
*       6.9746976929E-01               0
GRID*               3761               02.3050795272E-01-8.065690799E-01+
*       -7.021342806E-01               0
GRID*               3762               0-3.410288840E-02-1.376041113E-01+
*       -8.434441535E-01               0
GRID*               3763               0-1.025725140E-01-1.673664597E-01+
*       -8.164016010E-01               0
GRID*               3764               0-4.938311476E-02-9.967116319E-01+
*       -1.506464853E-02               0
GRID*               3765               0-9.157306220E-02-1.112455338E+00+
*       1.1609411756E-01               0
GRID*               3766               01.4071939605E-016.0986507584E-01+
*       9.1123050743E-01               0
GRID*               3767               0-1.188310081E-01-1.111347896E+00+
*       6.0630501840E-03               0
GRID*               3768               01.3300599618E-01-1.113433725E+00+
*       -5.210741274E-02               0
GRID*               3769               0-9.710615366E-03-1.120700761E+00+
*       2.9388732252E-03               0
GRID*               3770               02.4301882099E-01-2.164677254E-01+
*       8.1134938988E-01               0
GRID*               3771               03.1366431725E-01-3.244439774E-01+
*       7.9977817504E-01               0
GRID*               3772               01.1162068127E+00-1.087089511E-01+
*       -5.104589947E-01               0
GRID*               3773               0-2.063376432E-01-6.867911187E-01+
*       -8.053106012E-01               0
GRID*               3774               01.5907982836E-01-2.744430711E-01+
*       8.1153599429E-01               0
GRID*               3775               03.8008901812E-02-3.443841908E-01+
*       8.3079484237E-01               0
GRID*               3776               0-9.847484712E-011.1753022147E-01+
*       6.8164772509E-01               0
GRID*               3777               0-7.759354157E-01-3.629721727E-02+
*       9.1802395705E-01               0
GRID*               3778               0-7.210926692E-017.3980342113E-02+
*       9.0551300225E-01               0
GRID*               3779               0-8.694798961E-01-2.254170620E-01+
*       9.1009671791E-01               0
GRID*               3780               07.4586818292E-01-6.973919166E-01+
*       -4.919669265E-01               0
GRID*               3781               01.0513233746E+00-3.207136627E-01+
*       -6.065390782E-01               0
GRID*               3782               0-8.107503113E-01-1.339708682E-01+
*       8.9978401203E-01               0
GRID*               3783               0-7.608749156E-01-2.585774042E-01+
*       8.0517196050E-01               0
GRID*               3784               07.3465181195E-01-6.231281792E-01+
*       -3.133508288E-01               0
GRID*               3785               07.9883351104E-01-5.937754614E-01+
*       -1.853842774E-01               0
GRID*               3786               09.2753827327E-01-4.562258669E-01+
*       3.7737048393E-01               0
GRID*               3787               07.6427828410E-01-6.981123166E-01+
*       -2.474147908E-01               0
GRID*               3788               06.2162101656E-016.0910557317E-01+
*       -9.080850774E-01               0
GRID*               3789               0-4.926445483E-019.9773922058E-01+
*       -8.621679170E-01               0
GRID*               3790               0-4.944273687E-04-8.862886229E-01+
*       6.7304698146E-01               0
GRID*               3791               01.5765778248E-01-8.779588818E-01+
*       7.8923533376E-01               0
GRID*               3792               0-3.593023091E-01-4.259015900E-01+
*       9.0534005459E-01               0
GRID*               3793               0-9.911168374E-01-1.441550871E-01+
*       3.0611000892E-01               0
GRID*               3794               09.4525293757E-01-5.789502689E-01+
*       -1.982693874E-01               0
GRID*               3795               06.3176877716E-01-3.743987498E-01+
*       -9.168789308E-01               0
GRID*               3796               02.2672589421E-016.3469111897E-01+
*       -9.143196023E-01               0
GRID*               3797               0-8.406964321E-01-6.493373576E-02+
*       8.1116181122E-01               0
GRID*               3798               0-1.110262574E+00-1.810048148E-01+
*       -3.144946525E-01               0
GRID*               3799               0-9.438597067E-012.9688505721E-01+
*       4.9955475177E-01               0
GRID*               3800               0-9.597049116E-012.0452243873E-01+
*       5.9275736374E-01               0
GRID*               3801               0-9.280158488E-013.7714345769E-01+
*       5.7294737503E-01               0
GRID*               3802               01.0631257800E+003.3116903596E-01+
*       6.7618548929E-01               0
GRID*               3803               05.3934328167E-01-3.146221569E-02+
*       -9.044611722E-01               0
GRID*               3804               0-3.490915153E-01-2.084459839E-01+
*       8.2655967903E-01               0
GRID*               3805               0-7.024546367E-01-5.777606577E-01+
*       -1.863576112E-01               0
GRID*               3806               0-2.714973697E-015.1244113126E-01+
*       -9.051433883E-01               0
GRID*               3807               09.2684388307E-013.6786121295E-01+
*       6.9433637226E-01               0
GRID*               3808               06.4499567769E-019.2307061098E-01+
*       -8.649443847E-01               0
GRID*               3809               0-6.514028445E-01-3.709295879E-01+
*       -9.090361483E-01               0
GRID*               3810               02.5220218846E-01-6.969203515E-01+
*       -8.140765219E-01               0
GRID*               3811               0-9.628891223E-01-5.789877287E-01+
*       8.1788467299E-01               0
GRID*               3812               0-5.346108669E-02-1.440301861E-01+
*       -7.249585808E-01               0
GRID*               3813               0-3.679236659E-01-2.496550314E-01+
*       9.0648822586E-01               0
GRID*               3814               0-4.697980055E-01-5.051717348E-01+
*       8.0958746943E-01               0
GRID*               3815               0-5.345845795E-01-5.901621655E-01+
*       8.1808079363E-01               0
GRID*               3816               0-2.068369686E-011.0202478391E+00+
*       -6.458726726E-01               0
GRID*               3817               0-2.010198366E-011.1032781436E+00+
*       -5.059941964E-01               0
GRID*               3818               0-7.740254823E-021.0853118434E+00+
*       -5.010353064E-01               0
GRID*               3819               0-2.880176132E-014.0944784964E-01+
*       -9.164559769E-01               0
GRID*               3820               0-2.489512771E-011.0931287685E+00+
*       -2.739627187E-01               0
GRID*               3821               0-1.486876850E-011.1134724321E+00+
*       -1.601463778E-01               0
GRID*               3822               0-7.858013575E-016.3129325408E-01+
*       -1.529191437E-01               0
GRID*               3823               0-8.588568186E-016.8098065542E-01+
*       -4.810019090E-02               0
GRID*               3824               02.4074005095E-02-9.776946514E-01+
*       2.8711866455E-01               0
GRID*               3825               0-5.454140537E-019.7240453666E-01+
*       -7.068349856E-01               0
GRID*               3826               0-4.474548046E-018.7054008665E-01+
*       -7.752273161E-01               0
GRID*               3827               0-8.659326624E-024.0876202457E-01+
*       -8.948943936E-01               0
GRID*               3828               01.0084389839E-014.0632133412E-01+
*       -8.871046252E-01               0
GRID*               3829               0-8.150736427E-01-4.574061094E-01+
*       8.9964686506E-01               0
GRID*               3830               05.3285024122E-014.2693953172E-01+
*       -9.329547838E-01               0
GRID*               3831               0-8.027372716E-015.6184442557E-01+
*       1.9359529734E-01               0
GRID*               3832               0-7.666457114E-016.1622596147E-01+
*       2.9934126397E-01               0
GRID*               3833               0-3.016070652E-01-7.194630574E-02+
*       8.1506833372E-01               0
GRID*               3834               08.9358798072E-01-1.558101946E-01+
*       5.9693259570E-01               0
GRID*               3835               09.9451566308E-01-1.362472709E-01+
*       4.8358152083E-01               0
GRID*               3836               03.2979084810E-011.0553002553E+00+
*       -7.203186887E-01               0
GRID*               3837               03.2576273860E-011.0424467986E+00+
*       -8.039557373E-01               0
GRID*               3838               04.1708463931E-019.8591733745E-01+
*       -6.911008453E-01               0
GRID*               3839               0-4.097977548E-01-3.387020134E-01+
*       9.0414478148E-01               0
GRID*               3840               06.1413222201E-011.7413017472E-01+
*       8.1288222540E-01               0
GRID*               3841               05.5087189266E-017.8198642095E-02+
*       8.1607086736E-01               0
GRID*               3842               0-6.003064751E-016.7936674740E-01+
*       -8.936868013E-01               0
GRID*               3843               0-8.629601152E-016.9790248450E-01+
*       -5.920329611E-01               0
GRID*               3844               0-7.800902212E-017.8981189121E-01+
*       -3.785720492E-01               0
GRID*               3845               0-6.989747831E-018.5066714019E-01+
*       -2.828763691E-01               0
GRID*               3846               0-3.873300476E-01-5.243383251E-01+
*       9.1191901238E-01               0
GRID*               3847               05.1993031661E-012.0432960401E-01+
*       -8.063822188E-01               0
GRID*               3848               06.2620696026E-011.4591846239E-01+
*       -9.060110548E-01               0
GRID*               3849               07.7350678550E-01-7.487090526E-01+
*       -8.041148161E-01               0
GRID*               3850               01.1196710875E+005.4628031648E-02+
*       -4.792772612E-01               0
GRID*               3851               08.9547668150E-014.2787250630E-01+
*       -1.818137213E-01               0
GRID*               3852               0-7.626781081E-011.3741404502E-01+
*       -9.057187945E-01               0
GRID*               3853               09.1516920191E-01-3.640007954E-01+
*       -4.006559791E-01               0
GRID*               3854               0-2.959515176E-01-3.397870855E-01+
*       9.2406343213E-01               0
GRID*               3855               08.5851869728E-01-5.019377301E-01+
*       -2.922867602E-01               0
GRID*               3856               0-8.855158325E-01-1.164272625E-01+
*       6.6983683367E-01               0
GRID*               3857               0-2.200596427E-011.0777457004E-01+
*       8.6422445365E-01               0
GRID*               3858               03.3500559194E-016.7495936988E-01+
*       -9.037384037E-01               0
GRID*               3859               0-2.754513758E-012.0220924726E-01+
*       8.3012181290E-01               0
GRID*               3860               0-3.735865032E-011.5223375635E-01+
*       8.3619984318E-01               0
GRID*               3861               0-5.121514375E-017.7719097880E-01+
*       -9.235095121E-01               0
GRID*               3862               0-2.469690365E-011.0123350572E+00+
*       -3.901690626E-01               0
GRID*               3863               0-4.073609516E-011.0364179569E+00+
*       -3.599130896E-01               0
GRID*               3864               05.3281317021E-013.2581647471E-01+
*       -9.274544976E-01               0
GRID*               3865               0-9.162403088E-01-5.490261058E-01+
*       6.7498535904E-01               0
GRID*               3866               06.7743240985E-012.1475465747E-01+
*       9.0407766789E-01               0
GRID*               3867               0-1.120961138E-011.1195023267E+00+
*       -3.021520835E-01               0
GRID*               3868               0-4.664616417E-01-8.853983813E-01+
*       4.9441950118E-01               0
GRID*               3869               0-5.334494989E-01-9.907500451E-01+
*       5.8360142845E-01               0
GRID*               3870               06.3072942000E-01-8.778625740E-01+
*       -2.699695676E-01               0
GRID*               3871               0-4.788671492E-01-4.358088634E-01+
*       -8.120865951E-01               0
GRID*               3872               0-5.668921128E-01-7.019689243E-01+
*       9.2408113553E-01               0
GRID*               3873               0-8.372340633E-01-7.351403763E-01+
*       5.5501818597E-01               0
GRID*               3874               0-5.212260678E-01-5.833204135E-01+
*       9.3858134607E-01               0
GRID*               3875               0-6.128488490E-026.3671832683E-01+
*       9.0582944877E-01               0
GRID*               3876               02.2321779343E-01-5.893639625E-01+
*       8.1769224625E-01               0
GRID*               3877               05.1981762701E-01-1.347947538E-01+
*       -9.270138478E-01               0
GRID*               3878               06.4213478976E-013.1166067509E-01+
*       9.0452086879E-01               0
GRID*               3879               09.6137767578E-013.4772180229E-01+
*       -5.106516531E-01               0
GRID*               3880               06.9871274129E-017.1494077471E-01+
*       3.9877105015E-01               0
GRID*               3881               07.7791211604E-017.7409567736E-01+
*       4.0388038407E-01               0
GRID*               3882               0-6.489118423E-01-5.762398660E-01+
*       9.0580472541E-01               0
GRID*               3883               0-7.114053207E-01-8.383329233E-01+
*       7.8239865834E-01               0
GRID*               3884               0-8.039292063E-01-6.714989644E-01+
*       9.3470510583E-01               0
GRID*               3885               09.6198601990E-012.6304901792E-01+
*       -4.018307836E-01               0
GRID*               3886               07.9736249535E-01-5.947080790E-01+
*       -4.776765937E-01               0
GRID*               3887               09.8857237509E-015.2870577998E-01+
*       -4.083931532E-01               0
GRID*               3888               08.9105085478E-016.5693645832E-01+
*       -4.025687828E-01               0
GRID*               3889               09.4803808848E-016.0406932941E-01+
*       -2.992710196E-01               0
GRID*               3890               0-5.369933054E-015.9130620049E-01+
*       -9.040335001E-01               0
GRID*               3891               0-8.243407582E-014.4721325430E-01+
*       -9.016341025E-01               0
GRID*               3892               06.4364078370E-01-8.636714423E-01+
*       -6.332643026E-01               0
GRID*               3893               09.8056873008E-01-5.184127825E-01+
*       -7.394017172E-01               0
GRID*               3894               0-7.935600982E-01-6.477052203E-02+
*       -8.060878225E-01               0
GRID*               3895               02.3907839517E-011.0875565428E+00+
*       -1.899451648E-01               0
GRID*               3896               0-2.183492166E-019.1673266367E-01+
*       -4.910893483E-01               0
GRID*               3897               01.0836487614E+00-2.949148068E-01+
*       -2.112685893E-01               0
GRID*               3898               0-2.656789652E-016.1046087031E-01+
*       -9.046573733E-01               0
GRID*               3899               02.2928898477E-014.2796997663E-01+
*       9.2181219530E-01               0
GRID*               3900               0-1.148859880E-017.1806570783E-01+
*       9.3191717994E-01               0
GRID*               3901               0-7.516125837E-01-5.144078742E-01+
*       8.0353235029E-01               0
GRID*               3902               04.1527466107E-01-6.787810903E-01+
*       8.0951038848E-01               0
GRID*               3903               03.0735362426E-01-6.555789624E-01+
*       7.3261697767E-01               0
GRID*               3904               0-4.983341424E-018.8684021099E-01+
*       -9.029602946E-01               0
GRID*               3905               0-6.554180701E-01-9.084342696E-01+
*       -3.946903674E-01               0
GRID*               3906               0-7.173354626E-01-7.659181381E-01+
*       -3.190084228E-01               0
GRID*               3907               09.6256646592E-01-5.243469876E-01+
*       -2.912829365E-01               0
GRID*               3908               0-4.558966708E-01-8.576067546E-01+
*       8.2527136064E-01               0
GRID*               3909               05.3600195869E-018.6140091020E-01+
*       -9.050164611E-01               0
GRID*               3910               03.4257800120E-017.7751387685E-01+
*       -9.034196048E-01               0
GRID*               3911               0-8.987505931E-01-4.501150835E-01+
*       2.0656407255E-01               0
GRID*               3912               0-8.987023582E-01-4.077514053E-01+
*       1.0325636532E-01               0
GRID*               3913               05.3574951740E-015.4641837331E-01+
*       -9.043977155E-01               0
GRID*               3914               02.1648961473E-019.6868850523E-01+
*       1.8876048065E-01               0
GRID*               3915               0-8.127360672E-01-7.715572791E-01+
*       -2.172492443E-01               0
GRID*               3916               0-1.083632978E+00-2.282025308E-01+
*       6.8265400617E-01               0
GRID*               3917               0-9.839695070E-024.1566987134E-01+
*       8.1219973957E-01               0
GRID*               3918               02.2586720402E-018.1759911606E-01+
*       -9.207995434E-01               0
GRID*               3919               0-9.226904260E-013.6825826350E-01+
*       4.0743677342E-01               0
GRID*               3920               01.0664762919E+003.3429779406E-01+
*       3.0291183145E-01               0
GRID*               3921               0-4.626675633E-014.3182153783E-01+
*       -9.003517187E-01               0
GRID*               3922               0-1.844760073E-019.1098451234E-01+
*       -9.339166301E-01               0
GRID*               3923               01.0523335567E+00-3.978308225E-01+
*       -2.677964356E-01               0
GRID*               3924               02.8797683630E-01-1.072724954E+00+
*       2.8745321247E-01               0
GRID*               3925               09.2805828048E-02-1.103250605E+00+
*       -6.051439813E-01               0
GRID*               3926               0-1.452549138E-018.0853923489E-01+
*       6.4745576474E-01               0
GRID*               3927               04.2771451314E-017.2507272000E-01+
*       -9.037177839E-01               0
GRID*               3928               0-3.741134487E-013.8260283275E-01+
*       -8.155536972E-01               0
GRID*               3929               0-3.093163490E-01-5.194598618E-01+
*       8.2232871639E-01               0
GRID*               3930               01.1152288732E+005.7729482528E-02+
*       -6.958390310E-01               0
GRID*               3931               0-7.857239279E-014.9856896354E-01+
*       8.6012295644E-01               0
GRID*               3932               08.8580909961E-014.6336808571E-01+
*       -8.014131272E-01               0
GRID*               3933               09.8586372656E-015.1495351823E-01+
*       -7.139363144E-01               0
GRID*               3934               01.0529912496E+00-3.907583279E-01+
*       -3.719556733E-01               0
GRID*               3935               0-4.482747955E-01-4.171470794E-01+
*       8.1211039551E-01               0
GRID*               3936               0-8.201454337E-01-5.586658809E-01+
*       -1.874890823E-01               0
GRID*               3937               08.8381009471E-014.7648167317E-01+
*       6.9446589879E-01               0
GRID*               3938               05.6052426476E-019.5389889474E-01+
*       -6.463846866E-01               0
GRID*               3939               0-3.228320345E-018.4222055555E-01+
*       -7.982632946E-01               0
GRID*               3940               09.4781226432E-015.4965605929E-01+
*       -1.856329688E-01               0
GRID*               3941               0-3.271962336E-012.3715944380E-01+
*       7.3862213790E-01               0
GRID*               3942               02.8960885148E-02-1.116731310E+00+
*       -2.649820228E-01               0
GRID*               3943               0-6.251042533E-02-9.947307218E-01+
*       -3.053812787E-01               0
GRID*               3944               0-1.110199057E-01-9.928436424E-01+
*       -1.039893212E-01               0
GRID*               3945               0-1.516609357E-01-9.836338791E-01+
*       -1.979868163E-01               0
GRID*               3946               0-6.202376549E-02-1.096219129E+00+
*       -1.929284687E-01               0
GRID*               3947               0-2.160817098E-01-9.747905285E-01+
*       -3.039315916E-01               0
GRID*               3948               0-5.485052570E-014.8266371601E-01+
*       -9.043961760E-01               0
GRID*               3949               0-9.321206338E-016.2193108739E-01+
*       -2.922699662E-01               0
GRID*               3950               04.2245064556E-01-2.708229874E-01+
*       9.2516744777E-01               0
GRID*               3951               0-6.241448229E-015.4589785977E-01+
*       -9.038628651E-01               0
GRID*               3952               0-1.084019867E+002.4639132142E-01+
*       4.7883324262E-01               0
GRID*               3953               0-1.110175052E+00-1.848499820E-01+
*       3.8592445777E-01               0
GRID*               3954               02.5470171119E-01-1.089187854E+00+
*       7.2424140870E-01               0
GRID*               3955               0-1.196398122E-011.3186145202E-01+
*       8.1305656259E-01               0
GRID*               3956               0-1.840056315E-014.6101893014E-02+
*       8.0611535186E-01               0
GRID*               3957               0-8.155901376E-022.0220013496E-01+
*       7.7193811576E-01               0
GRID*               3958               06.9945715518E-014.0372154247E-01+
*       9.0226043172E-01               0
GRID*               3959               0-6.287676095E-01-7.956510874E-01+
*       -8.983785885E-01               0
GRID*               3960               02.7151911647E-011.3136119184E-01+
*       8.2365770026E-01               0
GRID*               3961               04.2207158372E-011.9451946275E-02+
*       8.1146705198E-01               0
GRID*               3962               05.5299317187E-01-8.272849901E-01+
*       5.9693242253E-01               0
GRID*               3963               0-5.606413539E-01-3.575395235E-01+
*       -8.200038228E-01               0
GRID*               3964               04.6157286015E-01-2.942784911E-02+
*       -8.034788247E-01               0
GRID*               3965               03.4872578758E-01-3.788563625E-02+
*       -9.137411378E-01               0
GRID*               3966               0-4.956625452E-01-4.217465709E-01+
*       -9.142601134E-01               0
GRID*               3967               0-7.117759748E-011.0879422220E-01+
*       8.1662136363E-01               0
GRID*               3968               05.6676595249E-01-9.701817527E-01+
*       -4.539461284E-01               0
GRID*               3969               03.5655876956E-019.5200745290E-01+
*       3.8541560468E-01               0
GRID*               3970               0-9.826274428E-01-2.466105945E-02+
*       -4.925474763E-01               0
GRID*               3971               0-1.059859718E+00-2.693905237E-01+
*       -5.962251843E-01               0
GRID*               3972               04.8798771715E-01-6.757449939E-01+
*       -8.200237628E-01               0
GRID*               3973               01.5790973038E-01-7.996381986E-01+
*       -9.148658511E-01               0
GRID*               3974               03.6798745006E-01-1.071224463E+00+
*       6.8355321797E-01               0
GRID*               3975               0-6.258884151E-016.4428748922E-01+
*       -6.186984570E-01               0
GRID*               3976               0-8.279075196E-01-5.718973744E-01+
*       -3.226754113E-03               0
GRID*               3977               0-9.888562219E-01-1.734474674E-01+
*       -7.936115692E-01               0
GRID*               3978               0-1.094832430E+00-1.431254981E-01+
*       -8.603989563E-01               0
GRID*               3979               01.8591589616E-01-1.101056674E+00+
*       7.9440101418E-01               0
GRID*               3980               01.4450835998E-01-9.903142569E-01+
*       8.0529339033E-01               0
GRID*               3981               0-9.050166115E-01-4.661373496E-01+
*       -8.020880754E-03               0
GRID*               3982               0-9.208364245E-01-3.813810259E-01+
*       -1.119425861E-01               0
GRID*               3983               04.7341755542E-01-1.016907739E+00+
*       6.9483792197E-01               0
GRID*               3984               0-2.662147936E-01-1.056412227E+00+
*       -5.726967922E-02               0
GRID*               3985               02.5671111258E-01-3.433688784E-01+
*       9.1900444410E-01               0
GRID*               3986               0-1.420899692E-01-1.102233848E+00+
*       -1.278810780E-01               0
GRID*               3987               01.3818652802E-02-1.107253065E+00+
*       -1.257601355E-01               0
GRID*               3988               0-3.592350357E-01-7.528873294E-01+
*       8.1436425005E-01               0
GRID*               3989               0-5.315080449E-01-8.492697325E-01+
*       7.6163194624E-01               0
GRID*               3990               07.0988554851E-01-8.548438367E-01+
*       3.9339177658E-01               0
GRID*               3991               0-1.115487713E+00-3.362944221E-02+
*       -8.330757930E-01               0
GRID*               3992               0-6.556474009E-01-4.707277068E-01+
*       -8.040279670E-01               0
GRID*               3993               02.8989744786E-01-1.088148057E+00+
*       7.6787530446E-01               0
GRID*               3994               03.7813927997E-01-4.246058799E-01+
*       9.0620283594E-01               0
GRID*               3995               0-8.267984577E-01-4.190691633E-01+
*       -7.013636634E-01               0
GRID*               3996               0-9.129157260E-01-4.473035264E-01+
*       -7.658452952E-01               0
GRID*               3997               07.2297830092E-017.0350817276E-01+
*       -9.118691492E-02               0
GRID*               3998               0-8.521710808E-01-5.495626378E-01+
*       7.9188091816E-01               0
GRID*               3999               04.0798506126E-01-1.047512486E+00+
*       -1.605249307E-01               0
GRID*               4000               01.0345337054E-02-8.786886880E-01+
*       8.0184420997E-01               0
GRID*               4001               0-7.560067553E-02-1.015203624E+00+
*       -6.634179841E-01               0
GRID*               4002               0-2.735451067E-01-5.946791095E-01+
*       9.2245709864E-01               0
GRID*               4003               0-4.570101823E-017.9646797797E-01+
*       -5.054777612E-01               0
GRID*               4004               0-8.481006546E-015.3065796192E-01+
*       -1.967534164E-01               0
GRID*               4005               08.8330718984E-01-5.070562747E-01+
*       6.7971917114E-01               0
GRID*               4006               0-8.412368279E-013.3257879340E-01+
*       7.3548583646E-01               0
GRID*               4007               0-8.487524864E-012.1325561105E-01+
*       7.9739425626E-01               0
GRID*               4008               0-5.932057206E-01-9.487290453E-01+
*       6.7156206961E-01               0
GRID*               4009               0-5.465472263E-01-8.726257391E-01+
*       6.0201959472E-01               0
GRID*               4010               0-2.436122678E-01-1.093262633E+00+
*       3.0010964425E-01               0
GRID*               4011               0-8.735468250E-016.9306678240E-01+
*       2.0780068983E-01               0
GRID*               4012               0-9.492121731E-015.8283834061E-01+
*       2.1737622179E-01               0
GRID*               4013               01.0272298458E+004.5913652680E-01+
*       -8.376968130E-01               0
GRID*               4014               0-9.933252243E-015.0698778295E-01+
*       1.5604847247E-01               0
GRID*               4015               0-6.289418722E-01-9.353360485E-01+
*       3.0299406855E-01               0
GRID*               4016               0-4.509773178E-018.9362271252E-01+
*       6.7147247827E-01               0
GRID*               4017               07.1303884170E-01-8.641755032E-01+
*       5.6338878278E-01               0
GRID*               4018               0-3.924306803E-011.0311319775E+00+
*       5.8563592870E-02               0
GRID*               4019               0-3.535728912E-011.0510235276E+00+
*       1.6225599278E-01               0
GRID*               4020               0-8.313745285E-02-1.121092815E+00+
*       2.7002785494E-01               0
GRID*               4021               0-1.039602025E+00-4.101571228E-01+
*       1.1208889068E-01               0
GRID*               4022               0-5.192025809E-018.5875710513E-01+
*       5.7868088803E-01               0
GRID*               4023               03.4943199448E-02-1.113536866E+00+
*       3.5372587239E-01               0
GRID*               4024               0-1.008832595E-01-1.111404014E+00+
*       4.0569643847E-01               0
GRID*               4025               01.4396339497E-01-9.857773284E-01+
*       -3.897634674E-01               0
GRID*               4026               09.2741830406E-01-3.513126867E-01+
*       7.9825890237E-01               0
GRID*               4027               06.0034214894E-01-9.414441779E-01+
*       -8.101305043E-02               0
GRID*               4028               0-3.505144452E-01-1.070509788E+00+
*       4.1523710535E-01               0
GRID*               4029               0-4.198673288E-01-1.017606231E+00+
*       2.7856984197E-01               0
GRID*               4030               0-3.106422761E-01-7.112461228E-01+
*       -7.912233220E-01               0
GRID*               4031               0-4.020516907E-01-6.140811152E-01+
*       8.1243114522E-01               0
GRID*               4032               0-1.186946543E-015.3751420448E-01+
*       8.1477921025E-01               0
GRID*               4033               0-4.412735736E-026.0776854741E-01+
*       8.0734047995E-01               0
GRID*               4034               0-1.126471714E+003.3750323938E-02+
*       -3.168932498E-01               0
GRID*               4035               0-5.100243345E-01-9.884653861E-01+
*       3.7983441933E-01               0
GRID*               4036               0-4.165258860E-018.9749130310E-01+
*       -2.824391964E-01               0
GRID*               4037               0-8.597751159E-02-7.911397723E-01+
*       7.9986303204E-01               0
GRID*               4038               0-5.393550763E-01-7.132606874E-03+
*       -8.142305273E-01               0
GRID*               4039               0-9.935446874E-01-4.716138440E-01+
*       3.3572154306E-01               0
GRID*               4040               0-3.397292869E-019.3453389908E-01+
*       -4.923093657E-01               0
GRID*               4041               03.5927122322E-026.9280352492E-01+
*       7.9454267618E-01               0
GRID*               4042               01.2911762303E-02-1.009868777E+00+
*       -5.791610075E-01               0
GRID*               4043               0-9.098905959E-01-6.251381737E-01+
*       -2.984307547E-01               0
GRID*               4044               0-2.423595812E-01-1.290373368E-01+
*       8.0334092945E-01               0
GRID*               4045               01.0289549434E+004.1419654764E-01+
*       2.0318565998E-01               0
GRID*               4046               0-2.876874744E-013.3006611639E-01+
*       8.3736398196E-01               0
GRID*               4047               0-2.778463768E-01-1.073202931E+00+
*       4.8948393316E-01               0
GRID*               4048               0-8.612352548E-01-4.969327455E-01+
*       -1.017412866E-01               0
GRID*               4049               08.2420624278E-015.8646779824E-01+
*       -5.051903673E-01               0
GRID*               4050               04.6544693879E-021.0006369063E+00+
*       -3.004076765E-01               0
GRID*               4051               0-4.002301084E-029.9478385228E-01+
*       -1.851939943E-01               0
GRID*               4052               04.6485304936E-01-1.015423134E+00+
*       8.0541338161E-02               0
GRID*               4053               0-8.868507262E-015.0642725675E-01+
*       4.7352155100E-01               0
GRID*               4054               0-1.047024945E+00-3.145916674E-01+
*       -3.085655140E-01               0
GRID*               4055               0-1.080898204E+00-2.985171363E-01+
*       -2.037402513E-01               0
GRID*               4056               05.4783984223E-01-9.655603131E-01+
*       1.8414280546E-01               0
GRID*               4057               01.0127028986E+00-4.106145991E-01+
*       1.9863359930E-01               0
GRID*               4058               08.8469608865E-016.7255345131E-01+
*       -1.944882691E-01               0
GRID*               4059               06.1063130757E-011.3237170023E-01+
*       9.0987387443E-01               0
GRID*               4060               01.3786530072E-013.1703105523E-01+
*       -8.657465605E-01               0
GRID*               4061               05.5305138898E-01-9.530596511E-01+
*       -1.205392693E-02               0
GRID*               4062               03.3219720858E-011.0765047568E+00+
*       1.5178262809E-01               0
GRID*               4063               01.0422760724E-012.4117989661E-01+
*       -8.868995589E-01               0
GRID*               4064               0-7.014482158E-017.1296006810E-01+
*       -4.979829345E-01               0
GRID*               4065               0-6.596767628E-017.5657778263E-01+
*       -5.921175669E-01               0
GRID*               4066               0-4.830527293E-013.7570272524E-01+
*       -8.081366304E-01               0
GRID*               4067               0-6.768586498E-016.3547359494E-01+
*       -7.937881224E-01               0
GRID*               4068               0-2.933662718E-01-6.306211206E-02+
*       -8.312218802E-01               0
GRID*               4069               0-6.239591665E-017.3303327006E-02+
*       -8.112538659E-01               0
GRID*               4070               0-6.144935942E-01-7.875964093E-01+
*       7.9418715853E-01               0
GRID*               4071               0-5.222191603E-011.1706835724E-01+
*       -8.070117058E-01               0
GRID*               4072               03.0205572968E-019.6909890259E-01+
*       -4.105481570E-01               0
GRID*               4073               0-4.487302268E-012.4573465094E-01+
*       -8.095351152E-01               0
GRID*               4074               0-1.122217106E-01-6.597280911E-01+
*       8.1303356860E-01               0
GRID*               4075               01.5035337149E-02-1.109396099E+00+
*       2.0694748132E-01               0
GRID*               4076               0-3.182617629E-01-1.077991615E+00+
*       -3.220414783E-01               0
GRID*               4077               02.6362627565E-01-5.268028620E-01+
*       -9.200544930E-01               0
GRID*               4078               0-2.982978717E-01-9.715226225E-01+
*       -7.989277739E-01               0
GRID*               4079               02.5422014279E-01-1.091278623E+00+
*       -1.972305290E-01               0
GRID*               4080               0-4.967544131E-01-7.481818770E-01+
*       7.9844513205E-01               0
GRID*               4081               0-1.809429355E-01-1.117335647E+00+
*       -3.931312348E-01               0
GRID*               4082               07.0988483303E-01-8.544127287E-01+
*       -1.478426378E-01               0
GRID*               4083               08.7319952922E-01-7.068874857E-01+
*       -6.533250215E-03               0
GRID*               4084               0-3.477057922E-02-8.585229748E-02+
*       -9.164064723E-01               0
GRID*               4085               01.4889527013E-01-8.924908108E-01+
*       -7.963555030E-01               0
GRID*               4086               05.0771853088E-01-7.827993222E-01+
*       -8.043123870E-01               0
GRID*               4087               09.9718394842E-014.4760615411E-01+
*       -6.624037363E-02               0
GRID*               4088               07.6639105232E-02-5.855883881E-01+
*       8.0256369159E-01               0
GRID*               4089               02.5197046272E-01-1.070586396E+00+
*       -5.857417817E-03               0
GRID*               4090               01.0971564447E+001.7163886941E-01+
*       -7.895397734E-02               0
GRID*               4091               0-3.254745800E-011.0725916390E+00+
*       -4.852151256E-01               0
GRID*               4092               01.0602436819E+00-3.186307559E-01+
*       -5.076983484E-01               0
GRID*               4093               0-1.418246503E-01-1.103455356E+00+
*       -2.804657371E-01               0
GRID*               4094               05.1316257156E-014.7673854200E-01+
*       -8.027345935E-01               0
GRID*               4095               06.1360609524E-015.9158438476E-01+
*       -8.068215293E-01               0
GRID*               4096               08.9402991769E-024.3916719246E-01+
*       8.0818194328E-01               0
GRID*               4097               0-6.325049253E-013.8254641285E-01+
*       -8.047150138E-01               0
GRID*               4098               0-2.299209277E-01-1.073576723E+00+
*       -1.933358479E-01               0
GRID*               4099               06.9595865312E-018.4327236231E-01+
*       -4.142388617E-02               0
GRID*               4100               08.5857937190E-017.3001273416E-01+
*       -9.047936135E-02               0
GRID*               4101               03.4835771359E-01-5.652326582E-01+
*       -9.097095491E-01               0
GRID*               4102               07.9967924553E-01-7.292738071E-01+
*       -1.184035654E-01               0
GRID*               4103               09.3263289932E-029.9158028057E-01+
*       -8.033527371E-01               0
GRID*               4104               01.5488516606E-011.0864463401E+00+
*       -6.593065569E-01               0
GRID*               4105               0-1.009466157E+00-4.754008276E-01+
*       -5.038207492E-01               0
GRID*               4106               0-2.039383451E-01-6.029243541E-01+
*       8.1149304741E-01               0
GRID*               4107               0-4.851576881E-018.6866595713E-01+
*       -3.835800731E-01               0
GRID*               4108               0-6.479259127E-017.5536307472E-01+
*       -7.579983246E-01               0
GRID*               4109               0-5.891802529E-018.1459179460E-01+
*       -5.117368354E-01               0
GRID*               4110               06.3865900394E-01-7.764723791E-01+
*       -5.735190251E-01               0
GRID*               4111               01.0171714052E+004.0621504610E-01+
*       -4.022244995E-01               0
GRID*               4112               01.0664265565E+003.3603125396E-01+
*       -3.060259906E-01               0
GRID*               4113               0-1.112949218E+00-1.321791190E-01+
*       -5.577721661E-01               0
GRID*               4114               02.0053335453E-01-7.698843472E-01+
*       -8.336159208E-01               0
GRID*               4115               0-8.916328186E-013.4576474088E-01+
*       -7.990945259E-01               0
GRID*               4116               0-5.526044922E-019.4598431322E-01+
*       4.9244670817E-01               0
GRID*               4117               01.2852420238E-01-6.137016928E-01+
*       -8.274004561E-01               0
GRID*               4118               0-8.354867407E-01-3.484107540E-01+
*       6.8606407944E-01               0
GRID*               4119               0-1.047236307E+00-3.716802993E-01+
*       -3.967728582E-01               0
GRID*               4120               05.8449210385E-01-7.330177906E-01+
*       -9.029896875E-01               0
GRID*               4121               0-9.799101686E-01-1.902191887E-02+
*       7.8721616188E-01               0
GRID*               4122               09.2721171327E-01-3.600885963E-01+
*       2.9234595799E-01               0
GRID*               4123               06.5790755888E-01-1.736693360E-01+
*       8.0309075334E-01               0
GRID*               4124               06.0596301096E-01-2.797985680E-01+
*       8.0625387651E-01               0
GRID*               4125               0-8.394999065E-01-3.355513258E-01+
*       -8.081041478E-01               0
GRID*               4126               0-8.118247030E-01-2.050509374E-01+
*       -8.196503407E-01               0
GRID*               4127               02.1327473459E-01-1.093184956E+00+
*       -6.666633277E-01               0
GRID*               4128               0-8.992402212E-01-1.343893059E-01+
*       -9.023501980E-01               0
GRID*               4129               05.6869340223E-015.4004033909E-01+
*       -7.008317268E-01               0
GRID*               4130               09.7092665070E-015.3326679708E-01+
*       -5.244670785E-01               0
GRID*               4131               06.7698007358E-01-2.746201132E-01+
*       -8.211168733E-01               0
GRID*               4132               0-1.071205859E+00-2.216098265E-01+
*       -8.522853401E-02               0
GRID*               4133               0-9.107873433E-01-3.811181040E-01+
*       -3.558944889E-01               0
GRID*               4134               01.3968772048E-013.0839713711E-01+
*       8.8032619276E-01               0
GRID*               4135               0-9.806324499E-01-1.990437668E-01+
*       6.5067964516E-03               0
GRID*               4136               0-2.369065920E-021.0623113860E+00+
*       1.5010769422E-01               0
GRID*               4137               0-7.454956514E-01-3.887683048E-01+
*       -8.051701558E-01               0
GRID*               4138               09.1700599163E-027.5602958977E-01+
*       -8.018952610E-01               0
GRID*               4139               0-1.083160224E+00-2.436472077E-01+
*       -4.066571331E-01               0
GRID*               4140               06.5186417725E-019.0416173218E-01+
*       -7.438403091E-01               0
GRID*               4141               04.3134665074E-019.5970272701E-01+
*       -8.121107725E-01               0
GRID*               4142               03.7751105784E-018.5627436446E-01+
*       -7.770201413E-01               0
GRID*               4143               02.8533072171E-019.5760079005E-01+
*       -5.928935590E-01               0
GRID*               4144               01.9183614456E-011.0969818329E+00+
*       -5.216506090E-01               0
GRID*               4145               0-4.593772552E-025.6331851839E-02+
*       8.7395651532E-01               0
GRID*               4146               05.9776942537E-014.0875625105E-01+
*       9.1097947777E-01               0
GRID*               4147               06.2821618867E-019.1173179786E-01+
*       -5.136230632E-01               0
GRID*               4148               0-7.327404564E-018.5233822653E-01+
*       3.2276704027E-01               0
GRID*               4149               01.0710972033E+002.4468379703E-01+
*       -2.006436183E-01               0
GRID*               4150               05.1365082209E-019.1021875359E-01+
*       -7.499468249E-01               0
GRID*               4151               0-4.316929404E-02-9.723040921E-01+
*       3.8081968970E-01               0
GRID*               4152               03.6175955023E-015.8631229485E-01+
*       -8.259041662E-01               0
GRID*               4153               04.6081560607E-012.5915166147E-01+
*       -9.173902514E-01               0
GRID*               4154               07.5915592720E-016.4742306154E-01+
*       -5.895456702E-01               0
GRID*               4155               07.5423715488E-01-6.242668936E-01+
*       -7.781694638E-01               0
GRID*               4156               04.0078030820E-011.0421314724E+00+
*       -3.767059301E-01               0
GRID*               4157               09.7386810261E-02-7.271463960E-01+
*       -8.095335499E-01               0
GRID*               4158               07.7429053396E-018.1849342710E-01+
*       3.1067706171E-01               0
GRID*               4159               01.0655334862E+00-2.406769186E-01+
*       -6.864356179E-01               0
GRID*               4160               08.4833408897E-017.1367519176E-01+
*       -6.767641635E-01               0
GRID*               4161               0-1.004210349E+00-4.603896758E-01+
*       -6.857676900E-01               0
GRID*               4162               09.2181183539E-016.4931057992E-01+
*       -6.119037396E-01               0
GRID*               4163               0-9.116761660E-026.9113568792E-01+
*       8.0786021291E-01               0
GRID*               4164               0-7.120325250E-031.0931881977E+00+
*       -3.890871231E-01               0
GRID*               4165               06.8812297651E-018.8955377285E-01+
*       -3.320663585E-01               0
GRID*               4166               08.4703655400E-01-2.784947028E-01+
*       6.9385675295E-01               0
GRID*               4167               03.8266268453E-021.1091109156E+00+
*       -5.043120807E-01               0
GRID*               4168               0-7.736604859E-014.2529330961E-01+
*       -8.044387966E-01               0
GRID*               4169               03.9908442178E-011.0440789332E+00+
*       -2.199438693E-01               0
GRID*               4170               03.2964898070E-011.0520167594E+00+
*       -3.066686169E-01               0
GRID*               4171               0-1.920008857E-017.5060814094E-01+
*       -7.940625805E-01               0
GRID*               4172               05.3484432635E-01-8.663941215E-01+
*       6.9741515622E-01               0
GRID*               4173               01.0788558806E+002.0364636084E-01+
*       -3.554170566E-01               0
GRID*               4174               02.5802745745E-018.6124802441E-01+
*       -6.691277644E-01               0
GRID*               4175               06.9680282084E-018.7183095452E-01+
*       -5.981339888E-01               0
GRID*               4176               0-1.001697834E+004.6389965652E-01+
*       -3.242159658E-01               0
GRID*               4177               01.2983323259E-016.0772996235E-01+
*       8.1211116578E-01               0
GRID*               4178               02.5924293401E-018.0960331565E-01+
*       -8.062511813E-01               0
GRID*               4179               01.1664398537E-018.8204393347E-01+
*       -8.102440214E-01               0
GRID*               4180               05.1368817121E-019.9879770593E-01+
*       -4.586678432E-01               0
GRID*               4181               0-2.935360821E-01-6.753183112E-01+
*       8.0966056549E-01               0
GRID*               4182               0-9.764139957E-01-2.261164830E-01+
*       -7.071054780E-01               0
GRID*               4183               03.2742011189E-011.0779554002E+00+
*       -6.118372355E-01               0
GRID*               4184               04.0113562361E-011.0529820918E+00+
*       -5.629647235E-01               0
GRID*               4185               0-3.332820571E-023.2642782642E-01+
*       -9.177029168E-01               0
GRID*               4186               0-1.086425700E-013.4395601858E-02+
*       8.2910465934E-01               0
GRID*               4187               0-4.921862163E-027.1016258768E-01+
*       -8.000377837E-01               0
GRID*               4188               06.0765402361E-01-1.970749346E-01+
*       -8.058901304E-01               0
GRID*               4189               01.1105145603E+001.0600051890E-01+
*       -2.117678249E-01               0
GRID*               4190               03.6970729240E-018.1016321938E-01+
*       -6.914466471E-01               0
GRID*               4191               04.6008642425E-019.5114026593E-01+
*       3.5919105723E-01               0
GRID*               4192               07.7802573401E-017.8374818226E-01+
*       -2.808132523E-01               0
GRID*               4193               0-1.042440351E-018.0640200257E-01+
*       -8.064821826E-01               0
GRID*               4194               05.2323811979E-01-8.375170343E-01+
*       8.0521790454E-01               0
GRID*               4195               08.5142267492E-01-2.582584978E-01+
*       8.0537931091E-01               0
GRID*               4196               02.7551474438E-01-9.453293287E-01+
*       8.2335676850E-01               0
GRID*               4197               0-6.284816567E-018.9255939239E-01+
*       2.0101865794E-01               0
GRID*               4198               0-1.452430486E-01-2.558481538E-02+
*       8.8090421417E-01               0
GRID*               4199               0-7.605666899E-01-3.884648658E-01+
*       8.0932336103E-01               0
GRID*               4200               0-1.508851947E-013.1356648429E-01+
*       -8.029034603E-01               0
GRID*               4201               09.9475827595E-014.7052276061E-01+
*       -2.705306492E-01               0
GRID*               4202               02.7420168445E-02-9.940521767E-01+
*       -4.123003481E-01               0
GRID*               4203               0-5.530345505E-031.1255122481E+00+
*       -2.333880630E-01               0
GRID*               4204               09.6888165196E-012.2688814166E-01+
*       7.9423600574E-01               0
GRID*               4205               04.8129919736E-018.8369022884E-01+
*       -5.943547649E-01               0
GRID*               4206               0-3.769812406E-01-8.869816126E-01+
*       -7.953520111E-01               0
GRID*               4207               0-5.564362145E-019.4517657603E-01+
*       3.0313275809E-01               0
GRID*               4208               0-8.036991569E-014.0485476832E-01+
*       8.0506024423E-01               0
GRID*               4209               04.2879600009E-02-9.909624123E-01+
*       7.3327228333E-01               0
GRID*               4210               09.8876458207E-01-1.385547517E-02+
*       4.7959048310E-01               0
GRID*               4211               09.7627413984E-01-3.613662210E-02+
*       6.0027753586E-01               0
GRID*               4212               01.2122480303E-01-9.915889531E-01+
*       -7.029160377E-01               0
GRID*               4213               0-2.048152719E-017.0095283171E-01+
*       8.0707153063E-01               0
GRID*               4214               01.7290789317E-01-7.717303100E-01+
*       7.8737574792E-01               0
GRID*               4215               0-9.544380638E-011.5287335328E-01+
*       8.0613163609E-01               0
GRID*               4216               09.7562073389E-01-9.261108655E-02+
*       7.1159661587E-01               0
GRID*               7069               0-9.875805974E-01-6.816776991E-01+
*       -1.000000000E+00               0
GRID*               7067               01.2074072659E-013.2352380455E-02+
*       -1.000000000E+00               0
GRID*               7070               0-1.207407266E-013.2352380455E-02+
*       1.0000000000E+00               0
GRID*               7071               0-1.207407266E-013.2352380455E-02+
*       1.5000000000E+00               0
GRID*               7068               01.2074072659E-013.2352380455E-02+
*       -1.500000000E+00               0
GRID*               6909               01.2074072659E-013.2352380455E-02+
*       -1.062500000E+00               0
GRID*               6910               01.2074072659E-013.2352380455E-02+
*       -1.125000000E+00               0
GRID*               6911               01.2074072659E-013.2352380455E-02+
*       -1.187500000E+00               0
GRID*               6912               01.2074072659E-013.2352380455E-02+
*       -1.250000000E+00               0
GRID*               6913               01.2074072659E-013.2352380455E-02+
*       -1.312500000E+00               0
GRID*               6914               01.2074072659E-013.2352380455E-02+
*       -1.375000000E+00               0
GRID*               6915               01.2074072659E-013.2352380455E-02+
*       -1.437500000E+00               0
GRID*               6916               0-9.778241796E-01-6.955894059E-01+
*       9.0013848239E-01               0
GRID*               6917               0-9.783369442E-01-6.948582531E-01+
*       8.0027356180E-01               0
GRID*               6918               0-9.788497434E-01-6.941270512E-01+
*       7.0040191838E-01               0
GRID*               6919               0-9.793625934E-01-6.933957769E-01+
*       6.0052039653E-01               0
GRID*               6920               0-9.798755090E-01-6.926644089E-01+
*       5.0062608209E-01               0
GRID*               6921               0-9.803885036E-01-6.919329282E-01+
*       4.0071637386E-01               0
GRID*               6922               0-9.809015887E-01-6.912013186E-01+
*       3.0078904745E-01               0
GRID*               6923               0-9.814147735E-01-6.904695668E-01+
*       2.0084231023E-01               0
GRID*               6924               0-9.819280647E-01-6.897376633E-01+
*       1.0087484574E-01               0
GRID*               6925               0-9.824414664E-01-6.890056021E-01+
*       8.8584660925E-04               0
GRID*               6926               0-9.829549802E-01-6.882733812E-01+
*       -9.912496498E-02               0
GRID*               6927               0-9.834686046E-01-6.875410025E-01+
*       -1.991573297E-01               0
GRID*               6928               0-9.839823357E-01-6.868084718E-01+
*       -2.992104570E-01               0
GRID*               6929               0-9.844961666E-01-6.860757986E-01+
*       -3.992830436E-01               0
GRID*               6930               0-9.850100883E-01-6.853429960E-01+
*       -4.993733054E-01               0
GRID*               6931               0-9.855240894E-01-6.846100803E-01+
*       -5.994790209E-01               0
GRID*               6932               0-9.860381564E-01-6.838770705E-01+
*       -6.995975861E-01               0
GRID*               6933               0-9.865522744E-01-6.831439881E-01+
*       -7.997260782E-01               0
GRID*               6934               0-9.870664271E-01-6.824108561E-01+
*       -8.998613283E-01               0
GRID*               6935               0-1.207407266E-013.2352380455E-02+
*       1.0625000000E+00               0
GRID*               6936               0-1.207407266E-013.2352380455E-02+
*       1.1250000000E+00               0
GRID*               6937               0-1.207407266E-013.2352380455E-02+
*       1.1875000000E+00               0
GRID*               6938               0-1.207407266E-013.2352380455E-02+
*       1.2500000000E+00               0
GRID*               6939               0-1.207407266E-013.2352380455E-02+
*       1.3125000000E+00               0
GRID*               6940               0-1.207407266E-013.2352380455E-02+
*       1.3750000000E+00               0
GRID*               6941               0-1.207407266E-013.2352380455E-02+
*       1.4375000000E+00               0
$*
$* ELEMENT CARDS
$*
$*  NX mesh: 3d_mesh(1)
CTETRA         1       1       1       2       3       4
CTETRA         2       1       5       6       7       8
CTETRA         3       1       9      10       3      11
CTETRA         4       1       1      12      13      11
CTETRA         5       1       1      14      11      13
CTETRA         6       1      15      16      17      18
CTETRA         7       1      19      20      21      22
CTETRA         8       1      23      14      24       1
CTETRA         9       1      19      25      26      20
CTETRA        10       1      19      25      22      24
CTETRA        11       1      19      23      27      28
CTETRA        12       1      29      30      31      32
CTETRA        13       1      32      29      33      31
CTETRA        14       1      32      34      31      35
CTETRA        15       1      36      37      38      39
CTETRA        16       1      40      29      41      42
CTETRA        17       1      32      29      41      33
CTETRA        18       1      32      42      29      43
CTETRA        19       1      32      44      45      46
CTETRA        20       1      32      43      29      30
CTETRA        21       1      25      22      40      47
CTETRA        22       1      19      25      24      26
CTETRA        23       1      40      33      48      25
CTETRA        24       1      49    5096    5097    5047
CTETRA        25       1      50      25      51      20
CTETRA        26       1      25      52      53      54
CTETRA        27       1      55    5104    5096    5105
CTETRA        28       1      25      20      56      51
CTETRA        29       1    5666      57    5591    5667
CTETRA        30       1      58      28      59      26
CTETRA        31       1      58      60      61      62
CTETRA        32       1      58      63      59      64
CTETRA        33       1      58      64      65      60
CTETRA        34       1      66       2       3      67
CTETRA        35       1       2      67      66      68
CTETRA        36       1       2      67      69      10
CTETRA        37       1       2      70      71       4
CTETRA        38       1       1      72      23      73
CTETRA        39       1       1       2       4      72
CTETRA        40       1       1      72      73      74
CTETRA        41       1       1      74       2      72
CTETRA        42       1    6611    6612      75    6536
CTETRA        43       1      76    6726    6801    6802
CTETRA        44       1      77      78      79      80
CTETRA        45       1      77      81      82      68
CTETRA        46       1      77      83      82      84
CTETRA        47       1      77      82      85      68
CTETRA        48       1      86      87      88      89
CTETRA        49       1      86      87      90      88
CTETRA        50       1      86      91      92      93
CTETRA        51       1      86      90      91      93
CTETRA        52       1      94    4750    4755    4754
CTETRA        53       1      86      90      95      96
CTETRA        54       1      97      93      95      86
CTETRA        55       1      98      99    6663     100
CTETRA        56       1      86      88      90      96
CTETRA        57       1      52     101     102     103
CTETRA        58       1      20     102      58      50
CTETRA        59       1     104     105     106     107
CTETRA        60       1      48      25      24      40
CTETRA        61       1      52     102     101     108
CTETRA        62       1      52     109     108     110
CTETRA        63       1     111      52     109     108
CTETRA        64       1     108      25      24      48
CTETRA        65       1      72     112     113     114
CTETRA        66       1      72     113      70      48
CTETRA        67       1      72     112      70     113
CTETRA        68       1      70      48     108       4
CTETRA        69       1      70     115     116      81
CTETRA        70       1     117      20      56     118
CTETRA        71       1     117     119      20      21
CTETRA        72       1     117     120     121     122
CTETRA        73       1     117      56      51     123
CTETRA        74       1      72      70       4      48
CTETRA        75       1      48      40      24     124
CTETRA        76       1     125      55     126     127
CTETRA        77       1     128     129     130     131
CTETRA        78       1     132     133     134     135
CTETRA        79       1       1      73      23      13
CTETRA        80       1      33     111      29      48
CTETRA        81       1     136     137     138     123
CTETRA        82       1     136     139     140     141
CTETRA        83       1     142      16     143     136
CTETRA        84       1     144     142      16     143
CTETRA        85       1      15     136     145      16
CTETRA        86       1     136     146     145     147
CTETRA        87       1      81     113     111      70
CTETRA        88       1      70     148       4     108
CTETRA        89       1     149    4949    4948    4960
CTETRA        90       1       4     150     151     152
CTETRA        91       1      74      72      73     114
CTETRA        92       1      72      48       4      24
CTETRA        93       1     153     154     155     156
CTETRA        94       1      70     115      82      71
CTETRA        95       1     108     151     157       4
CTETRA        96       1       1      14       4       3
CTETRA        97       1      72      48      24     124
CTETRA        98       1      24     124      22      23
CTETRA        99       1      19      28      26      14
CTETRA       100       1     158     159     132     160
CTETRA       101       1      14      24      26      19
CTETRA       102       1      26     108     150     102
CTETRA       103       1     108      24      26       4
CTETRA       104       1      20     119      65      21
CTETRA       105       1      21      19      26      20
CTETRA       106       1      19      28      27      21
CTETRA       107       1     149    4949    4960    4961
CTETRA       108       1      50      25      20     102
CTETRA       109       1      58      65      20      50
CTETRA       110       1     154     161      37     156
CTETRA       111       1     117     121     118      56
CTETRA       112       1      25      51      56      53
CTETRA       113       1      25      40      41      47
CTETRA       114       1     162    4838    4837    4850
CTETRA       115       1      20     118      21      22
CTETRA       116       1     163    4720    5463    5464
CTETRA       117       1     164      53      54     165
CTETRA       118       1      33     109      52     164
CTETRA       119       1     164      35      33     109
CTETRA       120       1     164      45     166      41
CTETRA       121       1     164      54     167     165
CTETRA       122       1     168     169     170     171
CTETRA       123       1     172    5462    4737    4756
CTETRA       124       1      52      54     164      53
CTETRA       125       1     164      54      41     166
CTETRA       126       1      59     173     150      14
CTETRA       127       1      59     174      63     173
CTETRA       128       1     175     176     177     178
CTETRA       129       1      59      64     174      28
CTETRA       130       1      59      26      28      14
CTETRA       131       1      58      59      63     150
CTETRA       132       1      58      64      60      63
CTETRA       133       1      64      65     179     180
CTETRA       134       1     180      28     181      64
CTETRA       135       1     182     180      28     181
CTETRA       136       1      58      64      59      28
CTETRA       137       1      59     174      64      63
CTETRA       138       1       1      24      72       4
CTETRA       139       1      19      23      24      22
CTETRA       140       1     124     183     184      22
CTETRA       141       1      72      24      23     124
CTETRA       142       1     124      48      40      29
CTETRA       143       1     124      23      73     183
CTETRA       144       1      72     113     124     114
CTETRA       145       1      58      26     150     102
CTETRA       146       1     185     186     187     188
CTETRA       147       1     189     190     191     192
CTETRA       148       1      59     150      26      14
CTETRA       149       1       4     150      14      26
CTETRA       150       1     108      26      25     102
CTETRA       151       1     193     194     195     196
CTETRA       152       1     150     197     151     152
CTETRA       153       1      28      21      19      26
CTETRA       154       1      19      14      23      28
CTETRA       155       1      59      14      28     198
CTETRA       156       1      26     102      58      20
CTETRA       157       1      58      61      60      65
CTETRA       158       1     199      63     200      58
CTETRA       159       1      58      50      61      65
CTETRA       160       1      58      21      65      28
CTETRA       161       1      58      65      64      28
CTETRA       162       1    5382    4875    7060    7061
CTETRA       163       1      64     174     201      60
CTETRA       164       1     202    6618    6693    6694
CTETRA       165       1     203     204     205      44
CTETRA       166       1     206      34      45     207
CTETRA       167       1    6438    6362     208    6437
CTETRA       168       1     206     209     210     211
CTETRA       169       1     206     204     209     211
CTETRA       170       1     206     212     211     210
CTETRA       171       1     213     153     214     215
CTETRA       172       1    6473     216     217     218
CTETRA       173       1     219     220     221     210
CTETRA       174       1     219     222     223     224
CTETRA       175       1     225     224     226     227
CTETRA       176       1     228    4950    4920    4921
CTETRA       177       1     224     219     227     229
CTETRA       178       1      61     102      53      50
CTETRA       179       1      65      87      50      61
CTETRA       180       1     153     215     230     231
CTETRA       181       1      61     232      62     233
CTETRA       182       1      61     234      50      53
CTETRA       183       1      61      62     232     235
CTETRA       184       1      61      87      50     234
CTETRA       185       1     236     145     146     237
CTETRA       186       1     237     238     239     145
CTETRA       187       1     240     241     242    4943
CTETRA       188       1     237     243     244     245
CTETRA       189       1     245     243     244     246
CTETRA       190       1     247     248     213     249
CTETRA       191       1     239     250     251     252
CTETRA       192       1     239     250     246     251
CTETRA       193       1     253     254     255     256
CTETRA       194       1     257     258     211     259
CTETRA       195       1     257     260     261     262
CTETRA       196       1     263     264     265     266
CTETRA       197       1     267     266     268     269
CTETRA       198       1     263     267     270     271
CTETRA       199       1     167     263     270     272
CTETRA       200       1     263     265     167     267
CTETRA       201       1     263     264     269     271
CTETRA       202       1     273     274     275     276
CTETRA       203       1     277     144      16     143
CTETRA       204       1     277     144     143     278
CTETRA       205       1     279     280     281     282
CTETRA       206       1     283    7070     284    7029
CTETRA       207       1     277     282     143     147
CTETRA       208       1       2      72      70       4
CTETRA       209       1      70      48     111     108
CTETRA       210       1     115     285     148     286
CTETRA       211       1     115      82      71     285
CTETRA       212       1      70     116     115     148
CTETRA       213       1     287     116     288      84
CTETRA       214       1     289     290     291     292
CTETRA       215       1     115     148     293     286
CTETRA       216       1     115     148     288     293
CTETRA       217       1      15     136     137     146
CTETRA       218       1     294    4950    4961    4951
CTETRA       219       1      15      16     145      17
CTETRA       220       1     237     236     270     146
CTETRA       221       1     136     137     146     295
CTETRA       222       1     296     297     298     299
CTETRA       223       1     139     147     295     136
CTETRA       224       1     177     175     300     301
CTETRA       225       1     239     236     145     245
CTETRA       226       1     146     302     270     295
CTETRA       227       1     236     267     270     302
CTETRA       228       1     303     304     305     306
CTETRA       229       1     244     236     267     270
CTETRA       230       1     146     302     236     270
CTETRA       231       1     146     137     236     302
CTETRA       232       1      15     146     236     145
CTETRA       233       1     236     307     234     308
CTETRA       234       1     236     308      89     145
CTETRA       235       1     157     151     101     309
CTETRA       236       1     101     157     108     151
CTETRA       237       1     157     310     311     293
CTETRA       238       1     157       4     148     108
CTETRA       239       1     312     313     275     314
CTETRA       240       1     157     315     151     309
CTETRA       241       1     157     293     316     315
CTETRA       242       1     157     152     151     316
CTETRA       243       1     152       4     148     157
CTETRA       244       1     144     143     278     317
CTETRA       245       1     318    4735    4734    4753
CTETRA       246       1     144     319     317     320
CTETRA       247       1     277     321     144     320
CTETRA       248       1     277      16     144     321
CTETRA       249       1      42      46     322     323
CTETRA       250       1      42     322     324     323
CTETRA       251       1     325     326    5841    5842
CTETRA       252       1      42     327     328     324
CTETRA       253       1      42      40     329      47
CTETRA       254       1      42     329      40     184
CTETRA       255       1     305    4735    4719    4718
CTETRA       256       1     124      29     114     113
CTETRA       257       1      48     113      29     124
CTETRA       258       1     330    6409     331    6334
CTETRA       259       1      24     108      26      25
CTETRA       260       1     117     120      21     118
CTETRA       261       1      32      42      46      41
CTETRA       262       1      25      33      52      54
CTETRA       263       1     332      30     333     334
CTETRA       264       1      47      22      40     329
CTETRA       265       1      52     164     110      53
CTETRA       266       1      40      29      33      41
CTETRA       267       1     335     336    6262    6187
CTETRA       268       1      33     111      52     109
CTETRA       269       1     137      54      56      51
CTETRA       270       1     137     337      54     166
CTETRA       271       1     236     165     302      51
CTETRA       272       1      15     123     136      16
CTETRA       273       1     337     137     138     295
CTETRA       274       1     137     302     166      54
CTETRA       275       1     136     295     139     141
CTETRA       276       1     147     295     136     146
CTETRA       277       1    6486     338    6485    6410
CTETRA       278       1      15     136     123     137
CTETRA       279       1     138     337      56     137
CTETRA       280       1     339     340    6337     341
CTETRA       281       1     236     302     137      51
CTETRA       282       1     342    4789     130     284
CTETRA       283       1      53     165      51      54
CTETRA       284       1      15     137     123      51
CTETRA       285       1     343     344     345     346
CTETRA       286       1     343     347     345     348
CTETRA       287       1     343     349     350     351
CTETRA       288       1     352     353    5080     354
CTETRA       289       1     195    5107    5087    5086
CTETRA       290       1     193     355     356     357
CTETRA       291       1     131    7029    7070     283
CTETRA       292       1     358     351     349     359
CTETRA       293       1     284     130     283    7029
CTETRA       294       1     360     351     347     346
CTETRA       295       1     361     269     350     362
CTETRA       296       1     361     244     271     243
CTETRA       297       1     361     244     269     271
CTETRA       298       1     361     271     363     364
CTETRA       299       1     111      29      48     113
CTETRA       300       1      29     113     111      31
CTETRA       301       1      32      33      41      35
CTETRA       302       1     124      29      40     184
CTETRA       303       1      42      29     328     184
CTETRA       304       1     222      44      34      30
CTETRA       305       1     283    6935     284    7070
CTETRA       306       1      29     113     365     366
CTETRA       307       1     113     366     114     367
CTETRA       308       1      33      25      52      48
CTETRA       309       1     367     113     111      81
CTETRA       310       1     111      81     116     367
CTETRA       311       1     368    5123     369    5100
CTETRA       312       1     113     367     112      81
CTETRA       313       1     194    5087    5071    5070
CTETRA       314       1     370    5675    5600    5599
CTETRA       315       1     370    5675     371    5600
CTETRA       316       1      72     114      74     112
CTETRA       317       1       2      71      70      68
CTETRA       318       1      70     108     111     148
CTETRA       319       1     164     165     110      53
CTETRA       320       1      54     166      47      41
CTETRA       321       1     167     270     302     166
CTETRA       322       1     257     261     295     204
CTETRA       323       1     257     166     295     270
CTETRA       324       1      25      54      41      33
CTETRA       325       1     372    4621    4608    4609
CTETRA       326       1     137     166     295     337
CTETRA       327       1     166      45     272     204
CTETRA       328       1     167     164     272     166
CTETRA       329       1     166     295     337     204
CTETRA       330       1     373     374    6692    6693
CTETRA       331       1     166      41     204      47
CTETRA       332       1     136      16     147     145
CTETRA       333       1     146     295     270     237
CTETRA       334       1     295     237     147     375
CTETRA       335       1     138     295     141     337
CTETRA       336       1     141     295     376     337
CTETRA       337       1     377     378     125      49
CTETRA       338       1      67      66     379     380
CTETRA       339       1       1      72      24      23
CTETRA       340       1       2      67      10       3
CTETRA       341       1       2      70      72     112
CTETRA       342       1       9      10     381     379
CTETRA       343       1     378    5096    5046    5095
CTETRA       344       1      69     379     382      10
CTETRA       345       1       2      68      70     112
CTETRA       346       1       1      73      12      74
CTETRA       347       1       2      10      69     383
CTETRA       348       1     128    7030     130    4789
CTETRA       349       1      12     384      10     385
CTETRA       350       1      12     386     387      13
CTETRA       351       1      12      11     384     386
CTETRA       352       1      12     388     384     385
CTETRA       353       1      12     386     388     389
CTETRA       354       1      83      82     289     390
CTETRA       355       1      85     391      80      77
CTETRA       356       1      82      66      71     285
CTETRA       357       1     392    5103     393    5104
CTETRA       358       1      77      68     391      81
CTETRA       359       1      55     392     393    5104
CTETRA       360       1     115      82     285     289
CTETRA       361       1     115      82      84      81
CTETRA       362       1     115      84      82     289
CTETRA       363       1     394     224     222     334
CTETRA       364       1     394     395      31      34
CTETRA       365       1     394     396     397     365
CTETRA       366       1     394      30     365     334
CTETRA       367       1     394      30     222      34
CTETRA       368       1     150     102     151     200
CTETRA       369       1      14     398      11     399
CTETRA       370       1      14     398       3      11
CTETRA       371       1      72      73     114     124
CTETRA       372       1      14     198     398     399
CTETRA       373       1     400     401     402     403
CTETRA       374       1      14     398     173       3
CTETRA       375       1     404     405    5835    5834
CTETRA       376       1      61     233      62      60
CTETRA       377       1     406    4740    4691    4690
CTETRA       378       1      62     407     232     408
CTETRA       379       1      62     232     235     408
CTETRA       380       1      62     200     409     235
CTETRA       381       1      32      42      43      46
CTETRA       382       1      32      35      31      33
CTETRA       383       1     164      54     166     167
CTETRA       384       1     137     166     302     295
CTETRA       385       1      25      41      40      33
CTETRA       386       1      32      41      46      45
CTETRA       387       1     164      41      35      45
CTETRA       388       1      41      47      46     204
CTETRA       389       1      25      54      47      41
CTETRA       390       1      42      40      47      41
CTETRA       391       1      47     337     410     322
CTETRA       392       1      47     322     410     329
CTETRA       393       1      42     184     327     329
CTETRA       394       1      45     272     207     411
CTETRA       395       1     412    6212    6287    6288
CTETRA       396       1      45     207      35     411
CTETRA       397       1     164      54      33      41
CTETRA       398       1     222      34      44     206
CTETRA       399       1     413     414     415     416
CTETRA       400       1      32      34      45      44
CTETRA       401       1      44      32      43      46
CTETRA       402       1      54      47     337      56
CTETRA       403       1     295     337     204     261
CTETRA       404       1     209     262     211     261
CTETRA       405       1     204      46     203     337
CTETRA       406       1     204     261     203     209
CTETRA       407       1     257     261     204     211
CTETRA       408       1      24     124      40      22
CTETRA       409       1      47      46     337     322
CTETRA       410       1     166      47     204     337
CTETRA       411       1     204     337     203     261
CTETRA       412       1     204     203     205     209
CTETRA       413       1      46     323      43      44
CTETRA       414       1     204     203      46      44
CTETRA       415       1      46     322     323     203
CTETRA       416       1     417     418     419     215
CTETRA       417       1      54     166     337      47
CTETRA       418       1     337     138     410     141
CTETRA       419       1     337     376     322     203
CTETRA       420       1     322     327     420     421
CTETRA       421       1      47      46     204     337
CTETRA       422       1      12     385      10     422
CTETRA       423       1      12     386      13      11
CTETRA       424       1     423     384     386     424
CTETRA       425       1     384     385     425     426
CTETRA       426       1     384     427     428     423
CTETRA       427       1     384     423     386      11
CTETRA       428       1     384     385     429      10
CTETRA       429       1     430     431     432     433
CTETRA       430       1     430     434     435     432
CTETRA       431       1     191     436     437     192
CTETRA       432       1     430     438     439     440
CTETRA       433       1     430     434     441     442
CTETRA       434       1      61      87     235     232
CTETRA       435       1      87     443      88     232
CTETRA       436       1      87     443      90      88
CTETRA       437       1     233      87     443      90
CTETRA       438       1      91      65      87      50
CTETRA       439       1     350     244     351     269
CTETRA       440       1     361     244     350     269
CTETRA       441       1     350     246     444     244
CTETRA       442       1     343     350     444     351
CTETRA       443       1     350     349     445     362
CTETRA       444       1     361     362     350     446
CTETRA       445       1     120     447      21     448
CTETRA       446       1     448     449      27      21
CTETRA       447       1     120     118     121     450
CTETRA       448       1     120     118     450     449
CTETRA       449       1      21     449      27     118
CTETRA       450       1     117     120     122      21
CTETRA       451       1     451     452     453     454
CTETRA       452       1    5661     455    5585    5586
CTETRA       453       1     456    4268    6851    4264
CTETRA       454       1     454     457     458     459
CTETRA       455       1     460    4919    4920    4951
CTETRA       456       1     461     454     458     459
CTETRA       457       1     454     453     462     452
CTETRA       458       1     454     463     458     464
CTETRA       459       1     454     465     463     451
CTETRA       460       1     341    6487    6412    6411
CTETRA       461       1     466     467     468     469
CTETRA       462       1       4     108     150      26
CTETRA       463       1      14     173     398     198
CTETRA       464       1     398     470     469     467
CTETRA       465       1     398      11     399     468
CTETRA       466       1     471     472     473     474
CTETRA       467       1     270     475     237     375
CTETRA       468       1     341    6411    6486    6487
CTETRA       469       1     476     477     478    4933
CTETRA       470       1     270     271     244     237
CTETRA       471       1     204     211     207     272
CTETRA       472       1     203     458     323     479
CTETRA       473       1     203     480     261     481
CTETRA       474       1      42     322     327     324
CTETRA       475       1     482     421     141     376
CTETRA       476       1      46      44     203     323
CTETRA       477       1     203     483     205     484
CTETRA       478       1     485    4741    4752    4749
CTETRA       479       1     204     209     211     261
CTETRA       480       1     486    4912    7032    4913
CTETRA       481       1     487     488     489     490
CTETRA       482       1     487     366     491     492
CTETRA       483       1     487     488     490     491
CTETRA       484       1     493    4692    4741    4742
CTETRA       485       1     487     491     494     492
CTETRA       486       1     495     496     298    4747
CTETRA       487       1     487     332     366     497
CTETRA       488       1     487     497     498     499
CTETRA       489       1     264     266     500     501
CTETRA       490       1     264     502     503     501
CTETRA       491       1     264     266     501     504
CTETRA       492       1     264     265     266     504
CTETRA       493       1     264     505     271     259
CTETRA       494       1     502     264     363     506
CTETRA       495       1      87     232     233     443
CTETRA       496       1      86      88      96      97
CTETRA       497       1      88      90      96     443
CTETRA       498       1      87      88     507     232
CTETRA       499       1     508     509    4768     401
CTETRA       500       1     510     443     511      97
CTETRA       501       1     512     513     514     515
CTETRA       502       1      88     232     516     507
CTETRA       503       1      88     511     516     443
CTETRA       504       1     517     518     519     520
CTETRA       505       1     249     248     213     521
CTETRA       506       1     517     518     184     328
CTETRA       507       1     517     327     522     441
CTETRA       508       1     523     524    5534    5535
CTETRA       509       1     517     525     526     520
CTETRA       510       1     517     527     526     525
CTETRA       511       1     517     324     527     525
CTETRA       512       1     236     244     307     245
CTETRA       513       1     237     145     146     147
CTETRA       514       1     270     271     475     259
CTETRA       515       1     267     167     270     302
CTETRA       516       1     117      92      51      50
CTETRA       517       1      52     103     102      53
CTETRA       518       1     528     335     336     529
CTETRA       519       1     302     166     270     295
CTETRA       520       1      51      92     234      50
CTETRA       521       1      15      92      51     123
CTETRA       522       1     236     267     302     165
CTETRA       523       1      15      18      92     123
CTETRA       524       1      15      51     236     137
CTETRA       525       1     236      51     234     165
CTETRA       526       1     123     137      56      51
CTETRA       527       1      51     234      53      50
CTETRA       528       1     396     397     530     531
CTETRA       529       1     396     367     116      81
CTETRA       530       1     396     367     365      31
CTETRA       531       1    5455     532    5530    5454
CTETRA       532       1     111     116      31     367
CTETRA       533       1     396     533     116      31
CTETRA       534       1    5530     534     535     532
CTETRA       535       1     212     211     536     207
CTETRA       536       1     210     219     206     212
CTETRA       537       1     212     537     274     536
CTETRA       538       1     538     539     540     541
CTETRA       539       1     219     223     212     229
CTETRA       540       1     219     221     212     210
CTETRA       541       1     212     274     537     542
CTETRA       542       1     212     207     536     543
CTETRA       543       1     544     545     546     547
CTETRA       544       1     545     548     549     452
CTETRA       545       1     545     550     549     548
CTETRA       546       1     213     156     153     230
CTETRA       547       1     549     551     552     545
CTETRA       548       1     545     552     553     554
CTETRA       549       1     545     551     552     554
CTETRA       550       1     550     545     553     555
CTETRA       551       1     555     550     556     553
CTETRA       552       1     557     558     388     559
CTETRA       553       1     557     424     560     561
CTETRA       554       1     557     424     558     560
CTETRA       555       1     557     562     563     564
CTETRA       556       1     565     468     428     566
CTETRA       557       1     565     424     423     567
CTETRA       558       1     565     567     568     569
CTETRA       559       1     565     428     468     423
CTETRA       560       1     565     424     561     428
CTETRA       561       1     565     428     570     566
CTETRA       562       1     571     572     573     574
CTETRA       563       1     182     575     576     577
CTETRA       564       1     182     578     577     579
CTETRA       565       1     145     580     245     308
CTETRA       566       1     308      89     511     507
CTETRA       567       1     507     581     511     308
CTETRA       568       1     516     507     581     511
CTETRA       569       1     308     581     444     346
CTETRA       570       1     308     444     582     245
CTETRA       571       1     583     584     585     586
CTETRA       572       1      17     145     587      16
CTETRA       573       1     144     588      16      18
CTETRA       574       1      16     321      17     588
CTETRA       575       1     589     590     591     592
CTETRA       576       1     295     137     138     136
CTETRA       577       1     144     321     588     320
CTETRA       578       1     277     278     143     280
CTETRA       579       1     213     156     230     593
CTETRA       580       1     102      53     103     235
CTETRA       581       1      25      52      48     108
CTETRA       582       1      61      53     102     235
CTETRA       583       1      25      52     108     102
CTETRA       584       1      58      21      20      65
CTETRA       585       1     150     102     108     151
CTETRA       586       1     150      63     197     173
CTETRA       587       1      58      59     150      26
CTETRA       588       1     157     316     148     152
CTETRA       589       1     151     594     197     200
CTETRA       590       1     102     151     101     108
CTETRA       591       1     595     596     597     598
CTETRA       592       1     333     334     599     600
CTETRA       593       1     333     601     499     602
CTETRA       594       1     333     599     603     600
CTETRA       595       1     601     333      43     604
CTETRA       596       1     333     602     499     600
CTETRA       597       1     333     602     600     603
CTETRA       598       1      61      60      65     233
CTETRA       599       1      65     605      90     179
CTETRA       600       1     216     217     218     606
CTETRA       601       1      63     200      58     150
CTETRA       602       1     607     300     608     609
CTETRA       603       1      87      91      50      92
CTETRA       604       1      64      63     174      60
CTETRA       605       1      65      28      21     180
CTETRA       606       1      58      26      20      21
CTETRA       607       1     458     461     459     420
CTETRA       608       1     610    4752    4751    4748
CTETRA       609       1     203     458     481     376
CTETRA       610       1     458     482     376     420
CTETRA       611       1     611     610    4752    4750
CTETRA       612       1    5603     612     613    5604
CTETRA       613       1     458     482     459     457
CTETRA       614       1     458     464     479     481
CTETRA       615       1     145     239     237     236
CTETRA       616       1      15      17     145      89
CTETRA       617       1      15     136     146     145
CTETRA       618       1     172    5462    4756    5461
CTETRA       619       1     136      16     143     147
CTETRA       620       1     145     614     615     580
CTETRA       621       1     616     617     161     618
CTETRA       622       1      15      16      18     123
CTETRA       623       1     277      16     587     145
CTETRA       624       1     277     619     587     281
CTETRA       625       1     277     320     620     621
CTETRA       626       1      94    4754     622     495
CTETRA       627       1     277     281     620     280
CTETRA       628       1     538    6611     541    6686
CTETRA       629       1     623     624    6760     540
CTETRA       630       1     277     280     143     282
CTETRA       631       1     327     421     625     442
CTETRA       632       1      42      43     323     324
CTETRA       633       1     517     324     441     527
CTETRA       634       1      42      43     324     328
CTETRA       635       1     114      74     383     626
CTETRA       636       1      74     114     627     626
CTETRA       637       1     114     627     518      74
CTETRA       638       1     114     627     626     492
CTETRA       639       1     628     629     630     631
CTETRA       640       1     114      74     518      73
CTETRA       641       1     114     184      29     124
CTETRA       642       1     557     632     386     569
CTETRA       643       1     557     424     561     569
CTETRA       644       1     565     424     428     423
CTETRA       645       1     428     565     570     561
CTETRA       646       1     424     425     560     633
CTETRA       647       1    5353     634     635     636
CTETRA       648       1     637    4890    5254    4891
CTETRA       649       1     424     633     428     425
CTETRA       650       1     638     639     640    6945
CTETRA       651       1     164     411      45      35
CTETRA       652       1     165      51      54     302
CTETRA       653       1      45     204      46      44
CTETRA       654       1     207     212     206      34
CTETRA       655       1     206      45      44     204
CTETRA       656       1     212     207     543      34
CTETRA       657       1     641    6639    6640    6564
CTETRA       658       1     207     272     536     265
CTETRA       659       1      58      61     200      62
CTETRA       660       1       1      11      14       3
CTETRA       661       1      19      27      23      22
CTETRA       662       1    6946    6947     639     642
CTETRA       663       1     523     524    5535     172
CTETRA       664       1      23      13      73     387
CTETRA       665       1     385     643     382     422
CTETRA       666       1     644    4568    4562    4567
CTETRA       667       1    6416    6492    6491     645
CTETRA       668       1     384      11     429     423
CTETRA       669       1     385     429     426     384
CTETRA       670       1      12     385     422     388
CTETRA       671       1     385      10     381     429
CTETRA       672       1      29      48      40      33
CTETRA       673       1      42      41      47      46
CTETRA       674       1     366     328      43      29
CTETRA       675       1     421     376     482     420
CTETRA       676       1      30      44      32      43
CTETRA       677       1      42      46     323      43
CTETRA       678       1     323     646     420     324
CTETRA       679       1     458     647     323     479
CTETRA       680       1      42     322     329     327
CTETRA       681       1     641    6641    6566    6565
CTETRA       682       1      12      73     387     648
CTETRA       683       1      12     518     627      74
CTETRA       684       1    5684    5608     649    5683
CTETRA       685       1     557     424     386     388
CTETRA       686       1      12     387     386     389
CTETRA       687       1     386     650     389     387
CTETRA       688       1     386     389     650     632
CTETRA       689       1     568     386     569     567
CTETRA       690       1     386     567     568     387
CTETRA       691       1     350     246     446     651
CTETRA       692       1     234      89     308     507
CTETRA       693       1     308     444     307     346
CTETRA       694       1     308     346     307     507
CTETRA       695       1     444     244     246     245
CTETRA       696       1     444     581     344     346
CTETRA       697       1     343     351     444     346
CTETRA       698       1      87     234     235     507
CTETRA       699       1      62     232     652     233
CTETRA       700       1      62     409     653     407
CTETRA       701       1      62     199      60     654
CTETRA       702       1      58     102     150     200
CTETRA       703       1      87     507      88      89
CTETRA       704       1     232     443     516     655
CTETRA       705       1     232     233     443     652
CTETRA       706       1     656     657     658     659
CTETRA       707       1     627     660     661     492
CTETRA       708       1     627     660     662     661
CTETRA       709       1     663     664     665     666
CTETRA       710       1     519     627     660     662
CTETRA       711       1      12      10     384      11
CTETRA       712       1     667    6533    6457     668
CTETRA       713       1      12      74      73     518
CTETRA       714       1     627      74     626     669
CTETRA       715       1     627     669     626     661
CTETRA       716       1     350     446     362     445
CTETRA       717       1     361     271     269     363
CTETRA       718       1     244     243     237     271
CTETRA       719       1     270     267     244     271
CTETRA       720       1     244     267     307     269
CTETRA       721       1     670     671     672     673
CTETRA       722       1     117     119     122      92
CTETRA       723       1     146     137     302     295
CTETRA       724       1     138     142     123     674
CTETRA       725       1     142     123     136     138
CTETRA       726       1     136     142     141     140
CTETRA       727       1     277     143      16     147
CTETRA       728       1     237     475     675     375
CTETRA       729       1     295     139     375     147
CTETRA       730       1     137     302      54      51
CTETRA       731       1     147     238     676     375
CTETRA       732       1     302      54     167     166
CTETRA       733       1     136     295     141     138
CTETRA       734       1     237     475     271     243
CTETRA       735       1     350     582     444     246
CTETRA       736       1     344     677     445     678
CTETRA       737       1     445     678     343     344
CTETRA       738       1     350     344     651     445
CTETRA       739       1     344     582     651     679
CTETRA       740       1     680    5258     637    6758
CTETRA       741       1     344     651     445     677
CTETRA       742       1    5632     681    5707    5631
CTETRA       743       1     344     346     682     345
CTETRA       744       1     344     582     679     581
CTETRA       745       1     113     367      31     365
CTETRA       746       1     396     367     530     365
CTETRA       747       1      70      81     116     111
CTETRA       748       1     595    5248    5249    5244
CTETRA       749       1      48       4      24     108
CTETRA       750       1     367     365     488     530
CTETRA       751       1     683     684     685     686
CTETRA       752       1     209     210     687     220
CTETRA       753       1     209     262     687     210
CTETRA       754       1     203     209     484     205
CTETRA       755       1     262     211     261     257
CTETRA       756       1      46     337     322     203
CTETRA       757       1    5245     688    5249    5244
CTETRA       758       1     209     687     484     205
CTETRA       759       1     146     295     237     147
CTETRA       760       1     164     110     165     167
CTETRA       761       1     165     268     167     110
CTETRA       762       1     689     690     691     692
CTETRA       763       1      51     234     165      53
CTETRA       764       1     234     165     235     307
CTETRA       765       1     165      53     235     103
CTETRA       766       1     693      60     694      63
CTETRA       767       1     693      63     695     197
CTETRA       768       1     693     696     697     695
CTETRA       769       1     697     693     698     696
CTETRA       770       1     693     197     199      63
CTETRA       771       1     699     700     701    6095
CTETRA       772       1     693      60     199     654
CTETRA       773       1     693     696     654     698
CTETRA       774       1     702     703     704     705
CTETRA       775       1     706     707     708     709
CTETRA       776       1     114     492     328     518
CTETRA       777       1     114     626     383     491
CTETRA       778       1     627      12     389     518
CTETRA       779       1       2      74     383     112
CTETRA       780       1     710    6389    6465     711
CTETRA       781       1     712    6526    6527    6451
CTETRA       782       1     102     151     200     101
CTETRA       783       1     157     108     148     311
CTETRA       784       1      48      52     111     108
CTETRA       785       1      52     164      54      33
CTETRA       786       1     713    5246    5224    5232
CTETRA       787       1     435     714     715     434
CTETRA       788       1     430     434     432     716
CTETRA       789       1     434     324     442     420
CTETRA       790       1     434     324     717     441
CTETRA       791       1     434     714     715     646
CTETRA       792       1     646     461     434     714
CTETRA       793       1     434     324     420     646
CTETRA       794       1    6389     718     719     711
CTETRA       795       1     327     441     324     442
CTETRA       796       1     517     327     324     328
CTETRA       797       1      29      41      42      32
CTETRA       798       1     322     327     421     329
CTETRA       799       1     625     720     721     327
CTETRA       800       1     324     328      43     497
CTETRA       801       1     722     711     723     724
CTETRA       802       1     647     323     646     420
CTETRA       803       1     725    6387    6463     726
CTETRA       804       1     346     516     727     728
CTETRA       805       1     232     655     516     728
CTETRA       806       1     728     346     729     727
CTETRA       807       1     516     581     730     511
CTETRA       808       1     516     731     655     443
CTETRA       809       1     516     510     443     511
CTETRA       810       1     516     730     510     511
CTETRA       811       1      77      68      85     391
CTETRA       812       1      67      66      68      69
CTETRA       813       1      68      85     672      69
CTETRA       814       1      77      82      81      84
CTETRA       815       1      68      81     112     391
CTETRA       816       1     174     732     733     734
CTETRA       817       1     174      28     399     198
CTETRA       818       1     174     399     734     198
CTETRA       819       1      64     174     181     735
CTETRA       820       1      59     174     173     198
CTETRA       821       1     174      63     173     736
CTETRA       822       1     398     468     399     198
CTETRA       823       1     398       3     470     173
CTETRA       824       1      11     567     399     423
CTETRA       825       1      11     399     468     423
CTETRA       826       1      19      23      14      24
CTETRA       827       1     517     527     441     522
CTETRA       828       1     527     441     716     717
CTETRA       829       1     324     441     527     717
CTETRA       830       1     517     526     527     522
CTETRA       831       1     396     367      81     530
CTETRA       832       1     396     530      81     531
CTETRA       833       1     373     127    5098    5097
CTETRA       834       1      81     737     116     531
CTETRA       835       1      81     738     531     530
CTETRA       836       1      81     530     391     738
CTETRA       837       1      70     148     111     116
CTETRA       838       1     739     740    6315    6316
CTETRA       839       1     287     737     116      84
CTETRA       840       1     115     116      81      84
CTETRA       841       1     741    4764    4765    4732
CTETRA       842       1      86      92      17      93
CTETRA       843       1     742    6541    6616    6617
CTETRA       844       1      86      17     743      93
CTETRA       845       1      88      89     507     511
CTETRA       846       1     236     308     145     245
CTETRA       847       1     744    4272    6795    4269
CTETRA       848       1     308     511      89     614
CTETRA       849       1      89     743     615     614
CTETRA       850       1     157     293     148     316
CTETRA       851       1     148     286     285     316
CTETRA       852       1     745     746    4758    4759
CTETRA       853       1       4     152      71       3
CTETRA       854       1     108     111     148     311
CTETRA       855       1     115     286     293     289
CTETRA       856       1      70      82      81      68
CTETRA       857       1       2       4      71       3
CTETRA       858       1     115     288     148     116
CTETRA       859       1     268     110     747     748
CTETRA       860       1     724     749     750     751
CTETRA       861       1     752    4536    4535    4534
CTETRA       862       1     110     748     268     411
CTETRA       863       1     748     753     266     754
CTETRA       864       1     411     748     268     265
CTETRA       865       1     748     266     753     268
CTETRA       866       1     755    4742    4741    4749
CTETRA       867       1     182      28     399     181
CTETRA       868       1      28     578     399      13
CTETRA       869       1       2      67      68      69
CTETRA       870       1       1       4      14      24
CTETRA       871       1      19      22      21      27
CTETRA       872       1     687     756     210     262
CTETRA       873       1     209     484     687     480
CTETRA       874       1     687     205     757     484
CTETRA       875       1     687     758     480     759
CTETRA       876       1     760     757     761     687
CTETRA       877       1     762     760     757     761
CTETRA       878       1     687     761     760     756
CTETRA       879       1     517     763     648     522
CTETRA       880       1     522     764     720     763
CTETRA       881       1     711     765     766     719
CTETRA       882       1     661     626     492     767
CTETRA       883       1     627     661     626     492
CTETRA       884       1     627     661     422     669
CTETRA       885       1     626     661     669     768
CTETRA       886       1     626     661     768     769
CTETRA       887       1     492     767     660     661
CTETRA       888       1     626     494     491     492
CTETRA       889       1     114     626     491     492
CTETRA       890       1     396     397     365     530
CTETRA       891       1      31      33     109     111
CTETRA       892       1      29      33      31     111
CTETRA       893       1      42      47     322      46
CTETRA       894       1      29     113      31     365
CTETRA       895       1     394      31      30      34
CTETRA       896       1     394     395      34     223
CTETRA       897       1      29     365      30      43
CTETRA       898       1     711    6315     740     765
CTETRA       899       1     394     334     365     397
CTETRA       900       1      32      45      34      35
CTETRA       901       1      30     365     332      43
CTETRA       902       1     332     334     365      30
CTETRA       903       1     117     122     123      92
CTETRA       904       1     770     771     772     217
CTETRA       905       1     119      21     122     447
CTETRA       906       1     122      18     674     123
CTETRA       907       1     117      51      20      50
CTETRA       908       1     122     674     773     121
CTETRA       909       1     118     329      56     410
CTETRA       910       1    6797    4276    4278    6834
CTETRA       911       1     774     775     776     777
CTETRA       912       1      21     122     447     120
CTETRA       913       1     117      20     118      21
CTETRA       914       1      61      87     234     235
CTETRA       915       1      58      61     102     200
CTETRA       916       1      22      56      47      25
CTETRA       917       1     302     167      54     165
CTETRA       918       1      25      54      53      56
CTETRA       919       1     346     351     307     360
CTETRA       920       1     728     507     346     516
CTETRA       921       1     346     347     408     778
CTETRA       922       1     346     360     307     408
CTETRA       923       1     308     346     507     581
CTETRA       924       1     409     200     199     197
CTETRA       925       1     409     779     407     780
CTETRA       926       1     409     780     407     408
CTETRA       927       1     409     200     594     781
CTETRA       928       1      62     408     409     407
CTETRA       929       1     693     782     199     197
CTETRA       930       1      62     654      60     652
CTETRA       931       1     783     784     785     786
CTETRA       932       1     693      63     199      60
CTETRA       933       1     409     197     594     200
CTETRA       934       1      58     199      62     200
CTETRA       935       1     409     594     787     779
CTETRA       936       1     361     788     789     790
CTETRA       937       1     361     364     789     788
CTETRA       938       1     791    5894    5893    5969
CTETRA       939       1     271     364     259     505
CTETRA       940       1     271     259     364     475
CTETRA       941       1      84      83      82     289
CTETRA       942       1     640    6946     642     792
CTETRA       943       1     793     794     795    4303
CTETRA       944       1      77      84     737      83
CTETRA       945       1      82      85     796      78
CTETRA       946       1      77     737     391     797
CTETRA       947       1     737     116      84      81
CTETRA       948       1      70      71      82      68
CTETRA       949       1      70     115      81      82
CTETRA       950       1     798     799     800     801
CTETRA       951       1     531     533     802     803
CTETRA       952       1     803     804     805     533
CTETRA       953       1     804     803     806     802
CTETRA       954       1     804     803     805     806
CTETRA       955       1     137      54     337      56
CTETRA       956       1     138     123     121     674
CTETRA       957       1     807     808     282     147
CTETRA       958       1     801     809     810     800
CTETRA       959       1     139     260     261     375
CTETRA       960       1     139     261     260     376
CTETRA       961       1     295     375     139     261
CTETRA       962       1     167     268     267     265
CTETRA       963       1     236     234      89     308
CTETRA       964       1     295     261     139     376
CTETRA       965       1     811     378     812     813
CTETRA       966       1     257     272     166     270
CTETRA       967       1     378    5046    5045    5095
CTETRA       968       1     263     272     167     265
CTETRA       969       1     164     272     166      45
CTETRA       970       1     204     205      44     206
CTETRA       971       1     295     270     237     375
CTETRA       972       1     814     801     798     815
CTETRA       973       1     758     262     481     260
CTETRA       974       1     206      45     204     207
CTETRA       975       1     816     817     818     819
CTETRA       976       1     322     421     410     329
CTETRA       977       1     166     167     270     272
CTETRA       978       1     295     376     337     261
CTETRA       979       1     139     375     676     260
CTETRA       980       1     141     140     142     820
CTETRA       981       1     141     821     421     482
CTETRA       982       1     138     121     123      56
CTETRA       983       1     143     139     147     808
CTETRA       984       1     244     237     236     270
CTETRA       985       1     822     801     799     798
CTETRA       986       1     421     482     821     823
CTETRA       987       1     421     442     824     625
CTETRA       988       1     421     482     825     459
CTETRA       989       1     517     327     441     324
CTETRA       990       1     421     420     482     459
CTETRA       991       1     826    4230    4235    4227
CTETRA       992       1     420     322     421     376
CTETRA       993       1     337     421     141     410
CTETRA       994       1     322     323     203     420
CTETRA       995       1     174     732     735     201
CTETRA       996       1      64     174     735     201
CTETRA       997       1     693     654     694      60
CTETRA       998       1     827     694     693     696
CTETRA       999       1     693     695      63     736
CTETRA      1000       1     693     694     736      63
CTETRA      1001       1     694     828     696     829
CTETRA      1002       1     694     828     732     201
CTETRA      1003       1     482     140     820     830
CTETRA      1004       1     421     824     442     825
CTETRA      1005       1     458     459     482     420
CTETRA      1006       1     821     721     410     421
CTETRA      1007       1     831    4290    4455    4418
CTETRA      1008       1     376     322     421     337
CTETRA      1009       1     646     832     833     715
CTETRA      1010       1     646     834     647     714
CTETRA      1011       1     832     835     715     646
CTETRA      1012       1     646     834     836     647
CTETRA      1013       1     646     420     461     647
CTETRA      1014       1     646     836     832     837
CTETRA      1015       1     646     837     832     835
CTETRA      1016       1     454     838     459     462
CTETRA      1017       1     459     452     462     825
CTETRA      1018       1    6906    5295    6743    6905
CTETRA      1019       1     482     825     839     823
CTETRA      1020       1     454     459     838     457
CTETRA      1021       1     459     461     442     420
CTETRA      1022       1     459     452     825     548
CTETRA      1023       1     454     452     459     548
CTETRA      1024       1      65      91     605     119
CTETRA      1025       1      90      65      87      91
CTETRA      1026       1     605      65     180     179
CTETRA      1027       1      86      87      89      92
CTETRA      1028       1     119     605     840      91
CTETRA      1029       1     447     119     605     840
CTETRA      1030       1      86      91      87      92
CTETRA      1031       1     122     119     840      92
CTETRA      1032       1     361     790     243     788
CTETRA      1033       1     361     246     350     244
CTETRA      1034       1     841     788     842     789
CTETRA      1035       1     789     843     790     788
CTETRA      1036       1     844     363     845     789
CTETRA      1037       1     822     801     846     799
CTETRA      1038       1     286     847     848     849
CTETRA      1039       1     148     286     316     293
CTETRA      1040       1     622    4754    4735    4753
CTETRA      1041       1     286     285     316     850
CTETRA      1042       1     286     851     289     847
CTETRA      1043       1      16      18     588      17
CTETRA      1044       1     588      93     852      17
CTETRA      1045       1     588     853     852     854
CTETRA      1046       1     203     420     376     322
CTETRA      1047       1      47      56     329     410
CTETRA      1048       1     117      20     119      50
CTETRA      1049       1     296     298     496     855
CTETRA      1050       1     164     110     167     411
CTETRA      1051       1     164     411     167     272
CTETRA      1052       1     124      40      22     184
CTETRA      1053       1     108     109     111     311
CTETRA      1054       1     856     857    6318     858
CTETRA      1055       1     859    5105    5099    5100
CTETRA      1056       1     164     109     411      35
CTETRA      1057       1      25      22      24      40
CTETRA      1058       1      33      48      52     111
CTETRA      1059       1     109      52     164     110
CTETRA      1060       1     327     421     442     420
CTETRA      1061       1     860     799     801     810
CTETRA      1062       1     327     720     763     522
CTETRA      1063       1     721     410     421     329
CTETRA      1064       1     321     861     588     320
CTETRA      1065       1     853     588     319     862
CTETRA      1066       1      18     123     142     674
CTETRA      1067       1      15      92      18      17
CTETRA      1068       1     122     674      18     863
CTETRA      1069       1     626     864     769     768
CTETRA      1070       1     661     865     767     866
CTETRA      1071       1     661     662     422     643
CTETRA      1072       1     219     222      34     223
CTETRA      1073       1     222     223     394      34
CTETRA      1074       1     219     212     221     229
CTETRA      1075       1    6815    4231    6838    6816
CTETRA      1076       1      34      44     206      45
CTETRA      1077       1     867     868     869     870
CTETRA      1078       1     224     226     227     222
CTETRA      1079       1      44      34      30      32
CTETRA      1080       1      30     222      44     334
CTETRA      1081       1     224     222     223     394
CTETRA      1082       1     601     497     366     332
CTETRA      1083       1     601     837     604     871
CTETRA      1084       1     601     872     871     497
CTETRA      1085       1     333     604     601     602
CTETRA      1086       1     601      43     871     604
CTETRA      1087       1     873    5688    5612    5687
CTETRA      1088       1     874     570     875     633
CTETRA      1089       1     567     577     579     565
CTETRA      1090       1     424     386     423     567
CTETRA      1091       1     569     424     561     565
CTETRA      1092       1     384     424     428     425
CTETRA      1093       1     633     570     875     561
CTETRA      1094       1     874     876     570     633
CTETRA      1095       1     384     425     428     427
CTETRA      1096       1     877     878     879     880
CTETRA      1097       1     877     881     882     255
CTETRA      1098       1     877     883     879     255
CTETRA      1099       1     884     885     758     886
CTETRA      1100       1     884     887     888     889
CTETRA      1101       1     884     885     886     890
CTETRA      1102       1     891     755     892    4742
CTETRA      1103       1     884     893     885     894
CTETRA      1104       1     884     895     894     896
CTETRA      1105       1     884     888     897     890
CTETRA      1106       1     884     895     896     897
CTETRA      1107       1     328     518     519     517
CTETRA      1108       1     328      43      29      42
CTETRA      1109       1     898    5689    5614    5613
CTETRA      1110       1     184     518     114     328
CTETRA      1111       1      73     184     518     114
CTETRA      1112       1     114     366     328     492
CTETRA      1113       1     328     519     518     492
CTETRA      1114       1     519     517     525     328
CTETRA      1115       1     113     367     111      31
CTETRA      1116       1     322     324     323     420
CTETRA      1117       1     763     184     648     183
CTETRA      1118       1     763     118     721     329
CTETRA      1119       1     327     720     441     625
CTETRA      1120       1     184     518     648      73
CTETRA      1121       1     763     183     648     899
CTETRA      1122       1     748     900     265     411
CTETRA      1123       1     196     901    5102     902
CTETRA      1124       1     903     904     905     906
CTETRA      1125       1     748     754     266     504
CTETRA      1126       1     900     411     907     908
CTETRA      1127       1     748     900     411     907
CTETRA      1128       1     909    5086    5085    5108
CTETRA      1129       1     900     276     274     273
CTETRA      1130       1     900     273     754     276
CTETRA      1131       1      92     119     840      91
CTETRA      1132       1     117      20      51      56
CTETRA      1133       1     393    5107    5103    5106
CTETRA      1134       1      72      48     124     113
CTETRA      1135       1     910    4735    4736    4719
CTETRA      1136       1      27     449     183     118
CTETRA      1137       1     118      27      21      22
CTETRA      1138       1     118      22     183      27
CTETRA      1139       1      25      20      22      56
CTETRA      1140       1     911    4655    4656    4640
CTETRA      1141       1     232     507     235     408
CTETRA      1142       1     912    5662    5587    5586
CTETRA      1143       1     308     582     444     581
CTETRA      1144       1     308     580     245     582
CTETRA      1145       1     516     507     346     581
CTETRA      1146       1     507     408     307     235
CTETRA      1147       1     615     614     913     914
CTETRA      1148       1     615     614     914     580
CTETRA      1149       1     615     743      17     587
CTETRA      1150       1     145     615      89      17
CTETRA      1151       1     615      17     145     587
CTETRA      1152       1      14      23      28      13
CTETRA      1153       1     384      11      10     429
CTETRA      1154       1      64     174      28     181
CTETRA      1155       1      11     423     468     429
CTETRA      1156       1     399     198     468     734
CTETRA      1157       1     174     399      28     181
CTETRA      1158       1     174     734     399     181
CTETRA      1159       1     182     915     181     579
CTETRA      1160       1     182     399     579     181
CTETRA      1161       1       4     148      71     152
CTETRA      1162       1      19      25      20      22
CTETRA      1163       1       4      14      24      26
CTETRA      1164       1     150     152     173     197
CTETRA      1165       1     152     197     316     916
CTETRA      1166       1     151     197     594     315
CTETRA      1167       1     524    5459    5535    5460
CTETRA      1168       1      71     148     285     152
CTETRA      1169       1     157     311     148     293
CTETRA      1170       1     152     470       3     173
CTETRA      1171       1     917    5146    5200    6848
CTETRA      1172       1      65     180      21     119
CTETRA      1173       1     693     696     695     827
CTETRA      1174       1     694      60     654     201
CTETRA      1175       1     693     696     694     654
CTETRA      1176       1      59      28     174     198
CTETRA      1177       1      58     102      61      50
CTETRA      1178       1     918    5537    5612    5613
CTETRA      1179       1      58     199      63      60
CTETRA      1180       1     443      90     919     233
CTETRA      1181       1     870     920     921     193
CTETRA      1182       1      72      73     124      23
CTETRA      1183       1      61     233      87     232
CTETRA      1184       1      87     232     507     235
CTETRA      1185       1      65      50      91     119
CTETRA      1186       1     622    4735    4754    4736
CTETRA      1187       1     233     179      90     919
CTETRA      1188       1      60     179     919     201
CTETRA      1189       1     139     808     143     140
CTETRA      1190       1     136     143     139     147
CTETRA      1191       1     143     280     278     922
CTETRA      1192       1     143     140     923     317
CTETRA      1193       1     144      16     588     321
CTETRA      1194       1     144     319     588      18
CTETRA      1195       1     321     320     621     861
CTETRA      1196       1     144     143     317     142
CTETRA      1197       1     407     924     925     926
CTETRA      1198       1     407     924     927     653
CTETRA      1199       1     409     408     781     780
CTETRA      1200       1     928    4236    4237    4229
CTETRA      1201       1     407     728     925     924
CTETRA      1202       1     407     655     728     924
CTETRA      1203       1     409     199     782     197
CTETRA      1204       1     409     407     779     653
CTETRA      1205       1     407     778     408     780
CTETRA      1206       1     151     197     315     316
CTETRA      1207       1     929     930    4905     931
CTETRA      1208       1     217     772     932     933
CTETRA      1209       1     151     152     197     316
CTETRA      1210       1      52      53     110     103
CTETRA      1211       1     934    6501    6500    6576
CTETRA      1212       1     150     197      63     200
CTETRA      1213       1      65     233      60     179
CTETRA      1214       1     199      63     197     200
CTETRA      1215       1      63     695     173     736
CTETRA      1216       1     935    6620    6545    6544
CTETRA      1217       1     374    6543    6619    6544
CTETRA      1218       1     693     199     782     654
CTETRA      1219       1     152     197     916     173
CTETRA      1220       1     117     120     118     121
CTETRA      1221       1      16     123     142      18
CTETRA      1222       1     277      16     321     587
CTETRA      1223       1     138     674     936     142
CTETRA      1224       1      15      89     236     234
CTETRA      1225       1      15      51      92     234
CTETRA      1226       1     517     648     763     184
CTETRA      1227       1     389     519     627     518
CTETRA      1228       1     627     422     937     389
CTETRA      1229       1     517     184     327     328
CTETRA      1230       1     518     389     520     648
CTETRA      1231       1     114     518     627     492
CTETRA      1232       1      12     669     627     422
CTETRA      1233       1     202     938    6620    6695
CTETRA      1234       1     114     383     112     671
CTETRA      1235       1     139     140     141     376
CTETRA      1236       1     410     138     337      56
CTETRA      1237       1     141     482     140     820
CTETRA      1238       1     410     450     821     936
CTETRA      1239       1     118     410     450     721
CTETRA      1240       1     327     421     721     625
CTETRA      1241       1     939     940     941     942
CTETRA      1242       1      41      45     204      46
CTETRA      1243       1     118     450     410     121
CTETRA      1244       1     118     184     183      22
CTETRA      1245       1     209     262     261     480
CTETRA      1246       1     203     483      44     205
CTETRA      1247       1      45     204     207     272
CTETRA      1248       1      45      35     207      34
CTETRA      1249       1     900     207     265     411
CTETRA      1250       1     257     270     475     259
CTETRA      1251       1     257     262     211     258
CTETRA      1252       1      14     399      28     198
CTETRA      1253       1     398     198     173     467
CTETRA      1254       1       3      71      66     470
CTETRA      1255       1     398     173     470     467
CTETRA      1256       1     323     646     871     836
CTETRA      1257       1      30      44     604     334
CTETRA      1258       1     604     323     871     836
CTETRA      1259       1     483     604     323      44
CTETRA      1260       1     206     204     211     207
CTETRA      1261       1     943     944     945    4995
CTETRA      1262       1     946     904     947     948
CTETRA      1263       1      44     226     205     483
CTETRA      1264       1     949    4904    5001    4903
CTETRA      1265       1     337     203     261     376
CTETRA      1266       1     903     905     904     948
CTETRA      1267       1      32      41      45      35
CTETRA      1268       1      64      65     180      28
CTETRA      1269       1     669      74      10      12
CTETRA      1270       1      23      13     387     578
CTETRA      1271       1       1      12      11      10
CTETRA      1272       1     444     244     245     307
CTETRA      1273       1     308     307     444     245
CTETRA      1274       1     950    6777    6701    6776
CTETRA      1275       1     307     235     360     103
CTETRA      1276       1     951    5469    5393    5468
CTETRA      1277       1      61      62     235     200
CTETRA      1278       1      62     655     407     653
CTETRA      1279       1     952    5394    5395    4280
CTETRA      1280       1     346     408     347     360
CTETRA      1281       1      62      60     233     652
CTETRA      1282       1      87      92     234      89
CTETRA      1283       1     409     408     235     781
CTETRA      1284       1     102     200     235     103
CTETRA      1285       1     235     408     360     781
CTETRA      1286       1      52     108     101     110
CTETRA      1287       1      70      71       4     148
CTETRA      1288       1      25      53      52     102
CTETRA      1289       1     951    5394    6957    6956
CTETRA      1290       1      61     234      53     235
CTETRA      1291       1     165     167     268     267
CTETRA      1292       1      20     118      22      56
CTETRA      1293       1     951    6957    4682    4676
CTETRA      1294       1     953    5751    5826    5827
CTETRA      1295       1     117     123     121      56
CTETRA      1296       1     117     123      51      92
CTETRA      1297       1     236     165     234     307
CTETRA      1298       1     122     863      18      93
CTETRA      1299       1     138     123     137      56
CTETRA      1300       1      15     146     137     236
CTETRA      1301       1     361     446     350     246
CTETRA      1302       1     244     307     351     269
CTETRA      1303       1     244     271     267     269
CTETRA      1304       1     239     250     243     246
CTETRA      1305       1     236     307     244     267
CTETRA      1306       1     233      90      65      87
CTETRA      1307       1     220     954     955     956
CTETRA      1308       1     220     210     760     957
CTETRA      1309       1     209     220     205     210
CTETRA      1310       1     220     760     757     762
CTETRA      1311       1     687     220     757     205
CTETRA      1312       1     136     140     143     142
CTETRA      1313       1     145     614      89     615
CTETRA      1314       1     147     807     238     282
CTETRA      1315       1     958     277     621     321
CTETRA      1316       1     243     239     245     237
CTETRA      1317       1     238     239     243     237
CTETRA      1318       1     942     929     959     931
CTETRA      1319       1     655     443     960     652
CTETRA      1320       1      62     199     409     200
CTETRA      1321       1     961     655     960     652
CTETRA      1322       1     655     653     652     961
CTETRA      1323       1     232     728     516     507
CTETRA      1324       1     290     851     289     293
CTETRA      1325       1     942     929     962     959
CTETRA      1326       1     315     963     851     316
CTETRA      1327       1     286     850     963     964
CTETRA      1328       1     316     963     851     286
CTETRA      1329       1     286     316     963     850
CTETRA      1330       1     316     963     965     315
CTETRA      1331       1     966    4221    4223    4224
CTETRA      1332       1      10      74     383       2
CTETRA      1333       1    5118    5117     967     939
CTETRA      1334       1       1       2      10       3
CTETRA      1335       1     385     381      10     382
CTETRA      1336       1      10     429       9     381
CTETRA      1337       1     942     940     941     962
CTETRA      1338       1      71      66       2       3
CTETRA      1339       1      67      69     379      66
CTETRA      1340       1      10      69     768     382
CTETRA      1341       1    5462    4737    4756    7025
CTETRA      1342       1     768      10     383      69
CTETRA      1343       1     968     933     932     969
CTETRA      1344       1     379      67      10      69
CTETRA      1345       1      69     383      68       2
CTETRA      1346       1     970    4521    4533    4522
CTETRA      1347       1    6680     971    6679    6604
CTETRA      1348       1     669      10      74     383
CTETRA      1349       1     206     222     205      44
CTETRA      1350       1     212     543     536     274
CTETRA      1351       1     219     220     210     205
CTETRA      1352       1     219     220     205     227
CTETRA      1353       1    5418    4383    6981    4304
CTETRA      1354       1     205     972     226     227
CTETRA      1355       1     972     484     757     205
CTETRA      1356       1     597    5251    5255    5257
CTETRA      1357       1     595     596     973     597
CTETRA      1358       1      15      89      92      17
CTETRA      1359       1      88     516     232     443
CTETRA      1360       1     165     110      53     103
CTETRA      1361       1     145     238     239     619
CTETRA      1362       1      54      51      53      56
CTETRA      1363       1      12      73      13     387
CTETRA      1364       1     763     118     329     184
CTETRA      1365       1       2      72      74     112
CTETRA      1366       1     114     367     671     112
CTETRA      1367       1      42      47     329     322
CTETRA      1368       1     114     491     367     366
CTETRA      1369       1       4     150     173      14
CTETRA      1370       1     124      73     184     183
CTETRA      1371       1     974     975     976     977
CTETRA      1372       1     111     116     311     978
CTETRA      1373       1      31     109      35     395
CTETRA      1374       1     152       4     173       3
CTETRA      1375       1      29     114     366     328
CTETRA      1376       1     399     567      13     578
CTETRA      1377       1      70      68      81     112
CTETRA      1378       1     850     316     916     285
CTETRA      1379       1     148     111     116     311
CTETRA      1380       1      70     115      71     148
CTETRA      1381       1     430     432     435     548
CTETRA      1382       1     430     441     716     439
CTETRA      1383       1     439     430     442     824
CTETRA      1384       1     979    5419    5495    5420
CTETRA      1385       1     441     430     442     439
CTETRA      1386       1     322     420     327     324
CTETRA      1387       1     421     482     823     825
CTETRA      1388       1     324     646     835     871
CTETRA      1389       1     421     442     459     825
CTETRA      1390       1     327     441     442     625
CTETRA      1391       1     459     825     442     461
CTETRA      1392       1     324     717     527     525
CTETRA      1393       1     688     980    5245    5246
CTETRA      1394       1     441     625     720     439
CTETRA      1395       1     327     522     441     720
CTETRA      1396       1     434     435     981     715
CTETRA      1397       1     527     982     522     526
CTETRA      1398       1     527     717     716     982
CTETRA      1399       1     983     836     483     984
CTETRA      1400       1     836     984     983     985
CTETRA      1401       1     323     836     483     647
CTETRA      1402       1     323     646     836     647
CTETRA      1403       1     836     832     983     834
CTETRA      1404       1     268     411     167     110
CTETRA      1405       1     207     411     272     265
CTETRA      1406       1     900     273     543     908
CTETRA      1407       1     411     543     395     908
CTETRA      1408       1     239     251     246     580
CTETRA      1409       1     250     243     788     986
CTETRA      1410       1     250     243     986     987
CTETRA      1411       1     619     147     145     238
CTETRA      1412       1     565     579     566     988
CTETRA      1413       1     428     423     427     468
CTETRA      1414       1      11      13     399     567
CTETRA      1415       1     989    6413    6489    6414
CTETRA      1416       1     398     429      11     468
CTETRA      1417       1     384     425     385     388
CTETRA      1418       1     990     991     992     993
CTETRA      1419       1     994     977     976     995
CTETRA      1420       1     241    4949    4944    4943
CTETRA      1421       1      70      81     113     112
CTETRA      1422       1     148     116     288     311
CTETRA      1423       1     394     396      31     533
CTETRA      1424       1     138     410     141     936
CTETRA      1425       1     239     245     580     246
CTETRA      1426       1      86      89     743      17
CTETRA      1427       1      91      90     840      93
CTETRA      1428       1     236     165     307     267
CTETRA      1429       1      64     181     180     179
CTETRA      1430       1     410     821     450     721
CTETRA      1431       1     450     449     996     773
CTETRA      1432       1     450     773     936     121
CTETRA      1433       1     118     721     450     449
CTETRA      1434       1     118      22     329     184
CTETRA      1435       1      82     289     997     285
CTETRA      1436       1     151     200     309     594
CTETRA      1437       1      77      85      82      78
CTETRA      1438       1     998     999     994     977
CTETRA      1439       1     115     289     293     288
CTETRA      1440       1     316     916     285     152
CTETRA      1441       1     850     316     963     965
CTETRA      1442       1      67       3      66     470
CTETRA      1443       1     152     470     173     916
CTETRA      1444       1     198     468     734     467
CTETRA      1445       1     346     307     507     408
CTETRA      1446       1      64     179      65      60
CTETRA      1447       1      74      10      12       1
CTETRA      1448       1      13     578     567     387
CTETRA      1449       1     398     468     198     467
CTETRA      1450       1      14     399      11      13
CTETRA      1451       1     399     423     567     579
CTETRA      1452       1     307     267     268     269
CTETRA      1453       1     174     736     198     734
CTETRA      1454       1      23      27      28     578
CTETRA      1455       1      70      48     113     111
CTETRA      1456       1     150     200     151     197
CTETRA      1457       1     990    1000    1001     994
CTETRA      1458       1      68     112     383     391
CTETRA      1459       1    1002    5948    5949    5873
CTETRA      1460       1     116     288      84     115
CTETRA      1461       1     316     965     916     197
CTETRA      1462       1     197     787     315     965
CTETRA      1463       1     152      71       3     470
CTETRA      1464       1      15     236      51     234
CTETRA      1465       1     808     147     676     139
CTETRA      1466       1     143     808     282     922
CTETRA      1467       1     139     808     140     376
CTETRA      1468       1     141     936     410     821
CTETRA      1469       1     289      84     291     288
CTETRA      1470       1    1003    1004     379      69
CTETRA      1471       1      69    1004     379     796
CTETRA      1472       1      68     672      85     391
CTETRA      1473       1     992    1005     993    1006
CTETRA      1474       1      77     391      80     797
CTETRA      1475       1      82      78     796     997
CTETRA      1476       1      85      69    1003     672
CTETRA      1477       1      85      78      80    1007
CTETRA      1478       1      32      30      31      34
CTETRA      1479       1      31     395      35      34
CTETRA      1480       1     394      30      31     365
CTETRA      1481       1     367     491     671     530
CTETRA      1482       1      31     111     109     978
CTETRA      1483       1     365     332     488     397
CTETRA      1484       1     365     488     491     367
CTETRA      1485       1    1008    4360    4352    4359
CTETRA      1486       1    1009    5794    5870    5795
CTETRA      1487       1     282     807    1010    1011
CTETRA      1488       1    1010     282     686    1012
CTETRA      1489       1    1013    1014    1015    1016
CTETRA      1490       1     807    1017    1018    1011
CTETRA      1491       1     807     808     147     676
CTETRA      1492       1     807    1017     808    1019
CTETRA      1493       1     737      81     738     531
CTETRA      1494       1    1020    1021    1022    1023
CTETRA      1495       1     673     490     670     671
CTETRA      1496       1       1       2      74      10
CTETRA      1497       1     671     391     672     383
CTETRA      1498       1     671     530     738     391
CTETRA      1499       1      81     112     391     671
CTETRA      1500       1     367     671      81     530
CTETRA      1501       1     165     307     267     268
CTETRA      1502       1      21     180      27     448
CTETRA      1503       1     120     122     447    1024
CTETRA      1504       1     234     235     507     307
CTETRA      1505       1    1025     110    1026     101
CTETRA      1506       1     110     101    1025     311
CTETRA      1507       1     907     311     109     110
CTETRA      1508       1    1027     907     311     109
CTETRA      1509       1     421     141     376     337
CTETRA      1510       1    1028    4543    4470    4537
CTETRA      1511       1      12     518     648     389
CTETRA      1512       1     110     103    1026     101
CTETRA      1513       1     277      16     145     147
CTETRA      1514       1    1001    1029    1030    1031
CTETRA      1515       1    1032    6675    6600    6599
CTETRA      1516       1    6169    1033    6094    6170
CTETRA      1517       1      23     578      28      13
CTETRA      1518       1     346     778     728     729
CTETRA      1519       1     407     924     926     927
CTETRA      1520       1     678     343     344     345
CTETRA      1521       1     165     307     103     235
CTETRA      1522       1    1014    1034    1035    1000
CTETRA      1523       1     346     408     728     778
CTETRA      1524       1     408     780     778     347
CTETRA      1525       1     173     736     916     467
CTETRA      1526       1     197     594     787     409
CTETRA      1527       1       4     150     152     173
CTETRA      1528       1     102     200     103     101
CTETRA      1529       1     398     429     468     469
CTETRA      1530       1     399     578     579     567
CTETRA      1531       1     427    1036     429     426
CTETRA      1532       1     428     633     427     425
CTETRA      1533       1      12      10     669     422
CTETRA      1534       1      14      13      28     399
CTETRA      1535       1    1037    1038    1039    1040
CTETRA      1536       1     385     381    1041     426
CTETRA      1537       1      11      10     429       9
CTETRA      1538       1     259     258    1042    1043
CTETRA      1539       1     259     475     258    1043
CTETRA      1540       1     212     210     221    1044
CTETRA      1541       1     259    1042     258     536
CTETRA      1542       1     211     259     536     272
CTETRA      1543       1     266     501    1045     500
CTETRA      1544       1     748     747     268     753
CTETRA      1545       1     748     504     265     900
CTETRA      1546       1     263     264     266     269
CTETRA      1547       1     266     269     753     268
CTETRA      1548       1    5118     902    5102     901
CTETRA      1549       1     266    1045     504     754
CTETRA      1550       1     266    1045     753     500
CTETRA      1551       1     675     986     243     238
CTETRA      1552       1    1046     675     243     475
CTETRA      1553       1     237     243     675     475
CTETRA      1554       1     675    1047     986    1048
CTETRA      1555       1     675     237     375     238
CTETRA      1556       1     807     675    1019     676
CTETRA      1557       1     675     676     890    1019
CTETRA      1558       1     139     808     376     676
CTETRA      1559       1     147     808     282     143
CTETRA      1560       1     444     245     246     582
CTETRA      1561       1     269     263     267     266
CTETRA      1562       1     263     264     536     265
CTETRA      1563       1     206     209     204     205
CTETRA      1564       1     207     272     211     536
CTETRA      1565       1     257     166     204     295
CTETRA      1566       1     164     272      45     411
CTETRA      1567       1     263     259     270     272
CTETRA      1568       1     203     323     458     420
CTETRA      1569       1     261     376     481     260
CTETRA      1570       1     277     619     281     282
CTETRA      1571       1     277     619     145     587
CTETRA      1572       1     145     587     252     580
CTETRA      1573       1     144     319      18     142
CTETRA      1574       1     239     145     252     580
CTETRA      1575       1     239     619     987     252
CTETRA      1576       1     619    1012     238     987
CTETRA      1577       1     195    1049    5087     194
CTETRA      1578       1     277     147     619     282
CTETRA      1579       1    1050     901     939    5089
CTETRA      1580       1     482     830     820     823
CTETRA      1581       1      25      47      54      56
CTETRA      1582       1     323      44     604      43
CTETRA      1583       1    1051    1052    1053    1054
CTETRA      1584       1     482     459     838     839
CTETRA      1585       1     143     282     280     922
CTETRA      1586       1     140     808    1055     838
CTETRA      1587       1     458     420     647     461
CTETRA      1588       1    4905    5090    1050     929
CTETRA      1589       1     454     451     463     464
CTETRA      1590       1     763     118     184     183
CTETRA      1591       1     458     479     463     647
CTETRA      1592       1     482     459     839     825
CTETRA      1593       1     458     463     461     647
CTETRA      1594       1     488    1056     530     397
CTETRA      1595       1     487     494     491     490
CTETRA      1596       1     367     530     488     491
CTETRA      1597       1     260     481     758     886
CTETRA      1598       1     260     890     475     375
CTETRA      1599       1    1057    6969    4361    4363
CTETRA      1600       1     260     758     885     886
CTETRA      1601       1     260     885     890     886
CTETRA      1602       1     376     260     676     481
CTETRA      1603       1     260     890     885     475
CTETRA      1604       1    1058    6621    6546    6545
CTETRA      1605       1    1059    5373    5360    5372
CTETRA      1606       1    1060    1037    1061    1054
CTETRA      1607       1     384     388     424     425
CTETRA      1608       1      12     389     388     422
CTETRA      1609       1     386     387      13     567
CTETRA      1610       1     385     388     425    1062
CTETRA      1611       1     388     937     422     389
CTETRA      1612       1     388     937     559    1062
CTETRA      1613       1      64     179      60     201
CTETRA      1614       1     179    1063      90     919
CTETRA      1615       1     233      60     919     652
CTETRA      1616       1    1025     311     309     310
CTETRA      1617       1    1037    1039    1064    1040
CTETRA      1618       1    1065    1066    1067    1068
CTETRA      1619       1      91     119      50      92
CTETRA      1620       1      62     655     232     407
CTETRA      1621       1      91      92      93     840
CTETRA      1622       1      63     197     173     695
CTETRA      1623       1      90     605      95    1063
CTETRA      1624       1     179     605      90    1063
CTETRA      1625       1     220    1069     957     760
CTETRA      1626       1     748     110     747     907
CTETRA      1627       1     207      35     395      34
CTETRA      1628       1     211     210     258     262
CTETRA      1629       1     257     375     295     261
CTETRA      1630       1     207     212     211     206
CTETRA      1631       1     205     483     226     484
CTETRA      1632       1     220     210     957     221
CTETRA      1633       1     210    1044     957     221
CTETRA      1634       1     222     205      44     226
CTETRA      1635       1    1070    1071    1072    1023
CTETRA      1636       1    1073    1036    1074    1070
CTETRA      1637       1     466    1070    1075    1076
CTETRA      1638       1    1075     466    1077    1072
CTETRA      1639       1    1070    1075    1073    1023
CTETRA      1640       1     743      93      97      86
CTETRA      1641       1     117     123     122     121
CTETRA      1642       1      86      89      17      92
CTETRA      1643       1    1078    1079    1080     700
CTETRA      1644       1     588     854      93    1081
CTETRA      1645       1      93     840     863    1081
CTETRA      1646       1      93     854    1082    1083
CTETRA      1647       1    1037    1038    1080    1084
CTETRA      1648       1     167     411     265     272
CTETRA      1649       1     182      27      28     180
CTETRA      1650       1     257     475     270     375
CTETRA      1651       1     165     110     103     268
CTETRA      1652       1     265     411     167     268
CTETRA      1653       1      44     226     483     984
CTETRA      1654       1    1049    5086    5070    5069
CTETRA      1655       1     517     648     518     520
CTETRA      1656       1      40     329      22     184
CTETRA      1657       1      47     410     337      56
CTETRA      1658       1     139     376     260     676
CTETRA      1659       1      52     103     110     101
CTETRA      1660       1    1085    5336    1086    1087
CTETRA      1661       1    1088     668     667    1089
CTETRA      1662       1     394     222      30     334
CTETRA      1663       1     257     211     204     272
CTETRA      1664       1    1090    1091    1092    1093
CTETRA      1665       1     329      56      47      22
CTETRA      1666       1     118     721     329     410
CTETRA      1667       1     145     615     587     580
CTETRA      1668       1      86      90      93      95
CTETRA      1669       1     580     614     308     145
CTETRA      1670       1     321      17     861     587
CTETRA      1671       1      16      17     321     587
CTETRA      1672       1     136      16     123     142
CTETRA      1673       1     588      18      93      17
CTETRA      1674       1     122      18     123      92
CTETRA      1675       1     122     119     447     840
CTETRA      1676       1    1094    5245    1095     980
CTETRA      1677       1     588      18     319     863
CTETRA      1678       1     894    1096    1097    1092
CTETRA      1679       1     258     885     756    1098
CTETRA      1680       1     258     475     885    1098
CTETRA      1681       1     598    5248     595    1099
CTETRA      1682       1     258    1044     536    1042
CTETRA      1683       1     259    1043     364     475
CTETRA      1684       1     259    1043     505     364
CTETRA      1685       1     257     262     258     475
CTETRA      1686       1     479    1100     463     834
CTETRA      1687       1     458     481     457     464
CTETRA      1688       1     458     481     376     457
CTETRA      1689       1     458     463     479     464
CTETRA      1690       1     203     484     479     483
CTETRA      1691       1     323     483     479     647
CTETRA      1692       1     545     548     555     550
CTETRA      1693       1     549     825    1101     462
CTETRA      1694       1     545     549     546     452
CTETRA      1695       1     549     462    1101    1102
CTETRA      1696       1     544     546     545     551
CTETRA      1697       1     549     452     825     462
CTETRA      1698       1     549     551     462    1102
CTETRA      1699       1    1103     248    1104     996
CTETRA      1700       1    1103    1104    1105    1106
CTETRA      1701       1    1103    1104     248    1105
CTETRA      1702       1    1103     448    1107    1108
CTETRA      1703       1    1109    1110    1111    1112
CTETRA      1704       1    1109    1113    1114    1115
CTETRA      1705       1     210     536     211     258
CTETRA      1706       1     365      29      30      31
CTETRA      1707       1     324     717     525     497
CTETRA      1708       1     114     671     491     383
CTETRA      1709       1    1116    4646    4651    4652
CTETRA      1710       1      10       3      11       1
CTETRA      1711       1     601      43     366     497
CTETRA      1712       1    1117    1118    1119    1120
CTETRA      1713       1     328     492     366     497
CTETRA      1714       1     332     601     333      43
CTETRA      1715       1      30      44      43     604
CTETRA      1716       1     411     543     900     207
CTETRA      1717       1     536    1044     210     212
CTETRA      1718       1     543     223     542     212
CTETRA      1719       1     900     543     273     274
CTETRA      1720       1     212     543     274     542
CTETRA      1721       1     543     542     312     274
CTETRA      1722       1     543    1121     395     908
CTETRA      1723       1     219      34     212     223
CTETRA      1724       1     543      34     223     212
CTETRA      1725       1    1122    1123     937     519
CTETRA      1726       1    1122    1123    1124    1125
CTETRA      1727       1    1122     572     520    1126
CTETRA      1728       1    1123    1122     937    1125
CTETRA      1729       1     481     886     676     808
CTETRA      1730       1     361     446     246     790
CTETRA      1731       1     140     142     317     143
CTETRA      1732       1     203     484     209     480
CTETRA      1733       1     479     481     464    1127
CTETRA      1734       1     479     481    1127     480
CTETRA      1735       1     479    1127     464    1100
CTETRA      1736       1     262     481     260     261
CTETRA      1737       1     264     259     536     505
CTETRA      1738       1     203     481     479     480
CTETRA      1739       1    1128     468     734     579
CTETRA      1740       1    1128    1129    1130     566
CTETRA      1741       1    1128    1131     468     566
CTETRA      1742       1     510     443     960     731
CTETRA      1743       1     510     443    1132     960
CTETRA      1744       1     510     731    1133    1134
CTETRA      1745       1     510    1135      97     511
CTETRA      1746       1     510    1133    1132    1136
CTETRA      1747       1    4841     162    4853    4840
CTETRA      1748       1     510    1132    1135    1136
CTETRA      1749       1     203     481     261     376
CTETRA      1750       1     209     210     211     262
CTETRA      1751       1     748     900     907     754
CTETRA      1752       1     110     907    1026     747
CTETRA      1753       1      90      86      91      87
CTETRA      1754       1      86      89      97     743
CTETRA      1755       1     117      92      50     119
CTETRA      1756       1     235     103     781     360
CTETRA      1757       1     103     268    1026     360
CTETRA      1758       1     139     147     676     375
CTETRA      1759       1     587     743     861    1137
CTETRA      1760       1     482     821     823     820
CTETRA      1761       1     421     821     625     824
CTETRA      1762       1     821     820     936    1138
CTETRA      1763       1     138      56     410     121
CTETRA      1764       1    1139     373     742    1140
CTETRA      1765       1     442     439     625     441
CTETRA      1766       1     327     421     329     721
CTETRA      1767       1     257     259     475     258
CTETRA      1768       1     274     503     536     537
CTETRA      1769       1     274     504    1141     276
CTETRA      1770       1     274     312     276    1142
CTETRA      1771       1     273     543     275     274
CTETRA      1772       1    1143    1144    1145    1146
CTETRA      1773       1    1144    1147    1148    1149
CTETRA      1774       1    1144    1150    1149    1151
CTETRA      1775       1    1144    1149    1150    1152
CTETRA      1776       1    1144    1153    1154    1155
CTETRA      1777       1    1144    1154    1152    1155
CTETRA      1778       1    1156    1144    1157    1148
CTETRA      1779       1     239     580     252     251
CTETRA      1780       1     239     987     250     252
CTETRA      1781       1     361     244     243     246
CTETRA      1782       1     250     246     790     243
CTETRA      1783       1     576     447     448     180
CTETRA      1784       1     576     447    1158     448
CTETRA      1785       1     182     576     180     915
CTETRA      1786       1     182     577     576     915
CTETRA      1787       1     576    1159     180     915
CTETRA      1788       1     576     575    1160     577
CTETRA      1789       1     742    6691    6692    6616
CTETRA      1790       1     619     281     282     683
CTETRA      1791       1     195    5087    5107    5106
CTETRA      1792       1     375     238     676     675
CTETRA      1793       1     807    1019     808     676
CTETRA      1794       1     143     923     140     922
CTETRA      1795       1     140     922    1055     808
CTETRA      1796       1     282    1011     280     922
CTETRA      1797       1     277     321     958     587
CTETRA      1798       1     374    6542    6618    6543
CTETRA      1799       1     257     270     295     375
CTETRA      1800       1    1161     722     742    1162
CTETRA      1801       1     367     365     366     491
CTETRA      1802       1     108     311     110     109
CTETRA      1803       1      62     652     655     653
CTETRA      1804       1     787     197     782     965
CTETRA      1805       1     110     907     311    1025
CTETRA      1806       1    1058     938    6621    6620
CTETRA      1807       1      62     409     199     653
CTETRA      1808       1    1163    4341    1164    4340
CTETRA      1809       1     747     268    1026     110
CTETRA      1810       1     101    1025     311     309
CTETRA      1811       1     696     695    1165     697
CTETRA      1812       1     693     695     697     782
CTETRA      1813       1     696    1165     827    1166
CTETRA      1814       1     696    1167     829     828
CTETRA      1815       1     696     829    1166     827
CTETRA      1816       1     696    1168     829    1167
CTETRA      1817       1     582     580     251     914
CTETRA      1818       1     582     614     580     914
CTETRA      1819       1     344     581     679     682
CTETRA      1820       1     582     679     614    1169
CTETRA      1821       1     246     446    1170     790
CTETRA      1822       1    1171    5701    1172    1173
CTETRA      1823       1     246     582     580     251
CTETRA      1824       1     245     246     582     580
CTETRA      1825       1     349     351     362     350
CTETRA      1826       1     444     346     351     307
CTETRA      1827       1     899     449    1174    1175
CTETRA      1828       1    1175    1174    1104     449
CTETRA      1829       1    1175     899     764    1174
CTETRA      1830       1    1175    1104     996     449
CTETRA      1831       1     763     118     183     449
CTETRA      1832       1    1176    5468    5392    5467
CTETRA      1833       1    6556    6557    1005    6481
CTETRA      1834       1    1175     449     996    1177
CTETRA      1835       1     763     449    1175     721
CTETRA      1836       1    1178    6156    6232    6157
CTETRA      1837       1    1179    1180    4892    5247
CTETRA      1838       1     763     449     183     899
CTETRA      1839       1    1181    1182     779    1183
CTETRA      1840       1     787    1183    1184     779
CTETRA      1841       1    1185    1186    1097    1093
CTETRA      1842       1    1181    1187    1188    1184
CTETRA      1843       1    1181     779    1189    1184
CTETRA      1844       1    1181    1183    1190    1191
CTETRA      1845       1    1181    1192    1189    1193
CTETRA      1846       1    1192    1187    1188    1181
CTETRA      1847       1    1181    1194    1191    1190
CTETRA      1848       1    1181    1190    1188    1194
CTETRA      1849       1    1195     547     451     465
CTETRA      1850       1     545     555    1195     553
CTETRA      1851       1    1195     555    1196     553
CTETRA      1852       1    1195     555    1197    1196
CTETRA      1853       1    1195    1198    1199     465
CTETRA      1854       1    1195    1198    1200    1199
CTETRA      1855       1    1195    1198    1201    1200
CTETRA      1856       1    1197    1195     465     555
CTETRA      1857       1     443    1202     652     919
CTETRA      1858       1     443    1202    1132     960
CTETRA      1859       1     510     960    1133     731
CTETRA      1860       1     232     728     507     408
CTETRA      1861       1    5419    4304    6982    4483
CTETRA      1862       1     443     511      97      88
CTETRA      1863       1     233     919     443     652
CTETRA      1864       1      88      89     511      97
CTETRA      1865       1    1044     882     210     957
CTETRA      1866       1     957     537    1203    1204
CTETRA      1867       1     957     955     220     221
CTETRA      1868       1    1205    6784    6785    6709
CTETRA      1869       1    1069     957     955     220
CTETRA      1870       1    1206    1207    1190    1183
CTETRA      1871       1    1206    1207    1208    1209
CTETRA      1872       1    1206    1190    1207    1210
CTETRA      1873       1    1206    1211    1209    1208
CTETRA      1874       1    1206    1210    1211    1212
CTETRA      1875       1    1213    1214    1215    1216
CTETRA      1876       1     291     289     292     847
CTETRA      1877       1     291    1217     289     847
CTETRA      1878       1      84      83     291    1218
CTETRA      1879       1    1217    1219    1220     291
CTETRA      1880       1     291    1113    1221     292
CTETRA      1881       1     290     291     292    1113
CTETRA      1882       1     407     728     408     778
CTETRA      1883       1     728     924     731     925
CTETRA      1884       1      61     102     200     235
CTETRA      1885       1     407     655     924     653
CTETRA      1886       1     438    1222     440    1223
CTETRA      1887       1     438    1224     825     824
CTETRA      1888       1    1225     439     625     824
CTETRA      1889       1     824     439     625     442
CTETRA      1890       1     244     245     236     237
CTETRA      1891       1     844     362     363     789
CTETRA      1892       1     363     502    1226     505
CTETRA      1893       1     264     269     363     506
CTETRA      1894       1     505     502     264     363
CTETRA      1895       1    1227    1228    1229    1230
CTETRA      1896       1     181    1159     915     180
CTETRA      1897       1    1055    1231    1232    1233
CTETRA      1898       1    1055    1234    1233    1232
CTETRA      1899       1    1055    1231    1233     839
CTETRA      1900       1    1235    1236    1092     889
CTETRA      1901       1     808    1017    1011     922
CTETRA      1902       1     140     820     830     142
CTETRA      1903       1    1055     923    1232     922
CTETRA      1904       1     482     457     140     838
CTETRA      1905       1     140    1055     922     923
CTETRA      1906       1     117      21     122     119
CTETRA      1907       1      59      14     198     173
CTETRA      1908       1     237     675     243     238
CTETRA      1909       1    1237     881    1213    1238
CTETRA      1910       1    1239    1202     961     960
CTETRA      1911       1      60     652     654     201
CTETRA      1912       1     924     961     655     960
CTETRA      1913       1     655     960     731     924
CTETRA      1914       1     122      93     840     863
CTETRA      1915       1    1240    1241    1119    1242
CTETRA      1916       1     119      65     180     605
CTETRA      1917       1      60     652     201     919
CTETRA      1918       1      91      90     605     840
CTETRA      1919       1     516     728     655     731
CTETRA      1920       1    1243    1244    1025     907
CTETRA      1921       1    1027     907    1243    1025
CTETRA      1922       1     907     311    1025    1027
CTETRA      1923       1    1245    1246    1247    1248
CTETRA      1924       1     536    1249    1044     537
CTETRA      1925       1     264     504     536     265
CTETRA      1926       1    1250    1251    1252    1253
CTETRA      1927       1     503    1249     505     536
CTETRA      1928       1     263     264     271     259
CTETRA      1929       1     259     536     505    1042
CTETRA      1930       1     345    1254     678    1255
CTETRA      1931       1     343     445    1255     678
CTETRA      1932       1     343     348     345    1255
CTETRA      1933       1     350     651     344     582
CTETRA      1934       1     345     778     729    1256
CTETRA      1935       1     346     729     345     778
CTETRA      1936       1    1257    1258    1259    1127
CTETRA      1937       1    1257    1127     480    1258
CTETRA      1938       1    1257    1127    1260     759
CTETRA      1939       1    1257    1260    1127    1261
CTETRA      1940       1    1257    1262    1261    1263
CTETRA      1941       1     502     505     503    1249
CTETRA      1942       1     502    1226    1264    1265
CTETRA      1943       1     502    1264    1266    1265
CTETRA      1944       1    1267     502    1266    1268
CTETRA      1945       1     502     505    1269    1226
CTETRA      1946       1     207     543     900     536
CTETRA      1947       1     227     222     205     219
CTETRA      1948       1     226     225    1270     224
CTETRA      1949       1     219     229     224     223
CTETRA      1950       1     203     209     261     480
CTETRA      1951       1     205     226     972     484
CTETRA      1952       1     484     226     972    1271
CTETRA      1953       1     222     219     227     224
CTETRA      1954       1    1182    1272    1273    1274
CTETRA      1955       1    1275    1182    1272    1273
CTETRA      1956       1    1274    1276    1193    1277
CTETRA      1957       1    1278    1279    1223    1280
CTETRA      1958       1    1274    1281    1192    1189
CTETRA      1959       1    1274    1193    1276    1273
CTETRA      1960       1    1189    1274     780    1182
CTETRA      1961       1     151     315     594     309
CTETRA      1962       1     594     197     787     315
CTETRA      1963       1      25     102      50      53
CTETRA      1964       1     409     779     787     653
CTETRA      1965       1     594    1183     787     779
CTETRA      1966       1    1183    1182     779     594
CTETRA      1967       1    1282    1283    6267    6342
CTETRA      1968       1     594     309    1284    1275
CTETRA      1969       1     409     787     782     653
CTETRA      1970       1    1285    1286     732     828
CTETRA      1971       1    1285     732    1286    1287
CTETRA      1972       1    1285    1288     829    1289
CTETRA      1973       1    1285     829    1288    1290
CTETRA      1974       1    1279    1291    1292    1293
CTETRA      1975       1    1285    1294     732    1287
CTETRA      1976       1    1285    1295    1296    1289
CTETRA      1977       1    1285    1294    1296    1295
CTETRA      1978       1     627     661     662     422
CTETRA      1979       1    1297     662     643    1062
CTETRA      1980       1     662    1298    1062    1297
CTETRA      1981       1     662     937    1062     559
CTETRA      1982       1    1299    1123     662    1125
CTETRA      1983       1    1300    1301    1302     980
CTETRA      1984       1     662     559    1298    1299
CTETRA      1985       1     317     278     320    1303
CTETRA      1986       1    1304    4890    4891    5051
CTETRA      1987       1     317    1305     278    1303
CTETRA      1988       1     144     320     317     278
CTETRA      1989       1    1234    1306      39    1307
CTETRA      1990       1    1234     823     830     839
CTETRA      1991       1    1234    1307    1308     154
CTETRA      1992       1    1234    1232    1308    1309
CTETRA      1993       1    1103    1107    1106    1105
CTETRA      1994       1    4705    4706    1310     406
CTETRA      1995       1    1103    1104    1174     449
CTETRA      1996       1    1103     448     575    1107
CTETRA      1997       1    1104    1311     996     521
CTETRA      1998       1    1103    1104     449     996
CTETRA      1999       1    1103    1312     449    1174
CTETRA      2000       1    1104    1106    1174    1313
CTETRA      2001       1    1104     996    1311    1314
CTETRA      2002       1    1315     285     916     470
CTETRA      2003       1    1315    1316     850     964
CTETRA      2004       1    1315     470    1317    1318
CTETRA      2005       1    1317    1319    1316    1315
CTETRA      2006       1    1320    1317    1319    1316
CTETRA      2007       1     601     872     497     499
CTETRA      2008       1     872    1321     497     499
CTETRA      2009       1     872    1322     835    1323
CTETRA      2010       1     872     871     835     837
CTETRA      2011       1     872     871     717     835
CTETRA      2012       1     363     506     269    1324
CTETRA      2013       1     264     271     363     269
CTETRA      2014       1     263     271     269     267
CTETRA      2015       1     266     263     267     265
CTETRA      2016       1     264     363     271     505
CTETRA      2017       1    1325    1326    1327    1328
CTETRA      2018       1    1325    1326    1329    1330
CTETRA      2019       1    1331    5534    5609    5610
CTETRA      2020       1    1325    1326    1330    1327
CTETRA      2021       1     307     351     269     268
CTETRA      2022       1     234     507     308     307
CTETRA      2023       1     446    1332     790     844
CTETRA      2024       1     446    1333    1332    1334
CTETRA      2025       1     446     651    1170    1333
CTETRA      2026       1    1335    1336    1245    1246
CTETRA      2027       1     362     844    1334     446
CTETRA      2028       1    1337    1338    1339    1340
CTETRA      2029       1    1337    1203    1249     537
CTETRA      2030       1    1337    1142    1338    1341
CTETRA      2031       1    1337    1142    1342    1343
CTETRA      2032       1      81     737     738     391
CTETRA      2033       1    1344    5611    5536    5535
CTETRA      2034       1     530     397    1056    1345
CTETRA      2035       1     488     490     530    1056
CTETRA      2036       1     488     530     490     491
CTETRA      2037       1     671     738     530     490
CTETRA      2038       1    1346    1347    1348    1349
CTETRA      2039       1     229    1350    1351    1204
CTETRA      2040       1     495    4751    4754    4753
CTETRA      2041       1     229    1350    1204     221
CTETRA      2042       1     229     542     221    1204
CTETRA      2043       1     212     206      34     219
CTETRA      2044       1     411      35     109     395
CTETRA      2045       1     384     423     429     427
CTETRA      2046       1     557     937     389     563
CTETRA      2047       1    1352     557     563     937
CTETRA      2048       1     937     520     519     389
CTETRA      2049       1     937    1126     520     389
CTETRA      2050       1     388     422     937    1062
CTETRA      2051       1     454     464     458     457
CTETRA      2052       1     454     451     452     465
CTETRA      2053       1     482     459     457     838
CTETRA      2054       1     463    1100     464     451
CTETRA      2055       1     463    1353     465     714
CTETRA      2056       1     821    1306     820    1138
CTETRA      2057       1     141     140     482     376
CTETRA      2058       1    1055     838     839     140
CTETRA      2059       1     482     140     830     839
CTETRA      2060       1    1128    1354    1355     734
CTETRA      2061       1    1354    1356    1287    1294
CTETRA      2062       1    1354     732    1287     735
CTETRA      2063       1    1354     734     735    1355
CTETRA      2064       1    1128    1354     734    1015
CTETRA      2065       1    1354    1356    1294    1015
CTETRA      2066       1    1354     732     734     733
CTETRA      2067       1     174     734     733     736
CTETRA      2068       1    1285    1287    1290    1294
CTETRA      2069       1     694     733    1285     829
CTETRA      2070       1    1354     735    1287    1357
CTETRA      2071       1    1354     734     732     735
CTETRA      2072       1     790    1358     788    1359
CTETRA      2073       1     343     344     350     445
CTETRA      2074       1     790    1359     843    1332
CTETRA      2075       1     361     243     271     364
CTETRA      2076       1     446    1170     790    1332
CTETRA      2077       1     350     269     351     362
CTETRA      2078       1    1360    1347    1361    1362
CTETRA      2079       1    1363     844     362     363
CTETRA      2080       1     884     889     888    1364
CTETRA      2081       1     260     885     262     475
CTETRA      2082       1     885     756    1098    1365
CTETRA      2083       1     687     262     480     758
CTETRA      2084       1     258     885     262     756
CTETRA      2085       1     258     262     885     475
CTETRA      2086       1     164      41      33      35
CTETRA      2087       1     884     888     886     758
CTETRA      2088       1    1310    4703    1366    4707
CTETRA      2089       1     116      31     367     396
CTETRA      2090       1     704    1367    1368    1369
CTETRA      2091       1     116     737     287     531
CTETRA      2092       1     737    1370     738    1371
CTETRA      2093       1      82     796      85      66
CTETRA      2094       1    1372    6626    6627    6551
CTETRA      2095       1    1371      83     797     737
CTETRA      2096       1    1371      83     737    1218
CTETRA      2097       1     286     964     963     849
CTETRA      2098       1     851     289     292     290
CTETRA      2099       1     851    1373    1374     847
CTETRA      2100       1    1070     466     469    1076
CTETRA      2101       1     469    1036    1074     380
CTETRA      2102       1    1070    1073    1075    1375
CTETRA      2103       1    1070    1036    1074     469
CTETRA      2104       1    1376    1377    1378    1379
CTETRA      2105       1    1380    1036    1070     427
CTETRA      2106       1    1036     429       9     469
CTETRA      2107       1     605     840    1381     447
CTETRA      2108       1      90      96    1063      95
CTETRA      2109       1     179    1159    1063    1382
CTETRA      2110       1     179    1159     605    1063
CTETRA      2111       1     102      25      20      26
CTETRA      2112       1     119     447     605     180
CTETRA      2113       1     605    1063    1083      95
CTETRA      2114       1      81     530     671     391
CTETRA      2115       1     978     533     287    1383
CTETRA      2116       1     384     424     423     428
CTETRA      2117       1     978     311    1027     288
CTETRA      2118       1     533     116      31     978
CTETRA      2119       1     112     671     383     391
CTETRA      2120       1     116     311     978     288
CTETRA      2121       1     197     173     695     916
CTETRA      2122       1    1384    1385    1386    1387
CTETRA      2123       1     200     781     101     309
CTETRA      2124       1     907    1025     110    1026
CTETRA      2125       1      58      28      26      21
CTETRA      2126       1      77      78      82      83
CTETRA      2127       1     111     978     311     109
CTETRA      2128       1    1198    1259    1200    1199
CTETRA      2129       1      59      63     150     173
CTETRA      2130       1    1109    1115    1388    1389
CTETRA      2131       1     929     944    4907    1390
CTETRA      2132       1    1109    1114    1218    1391
CTETRA      2133       1     590     292    1392    1221
CTETRA      2134       1    1393    1394    1395    1396
CTETRA      2135       1    1397    5276    5291    5277
CTETRA      2136       1    1113    1115    1221    1398
CTETRA      2137       1    1109    1110    1114    1111
CTETRA      2138       1    1109    1115    1389    1221
CTETRA      2139       1    1114    1113    1399    1115
CTETRA      2140       1    1400    1401    1402    1403
CTETRA      2141       1    1400    1402    1404    1403
CTETRA      2142       1    1402    1400     489    1401
CTETRA      2143       1     525     526    1405     717
CTETRA      2144       1     328     497     525     492
CTETRA      2145       1     517     520     522     648
CTETRA      2146       1     525    1405    1376    1321
CTETRA      2147       1     525     497    1321     498
CTETRA      2148       1     525     497     498     492
CTETRA      2149       1     660     498     519    1376
CTETRA      2150       1    1393    1406    1407    1394
CTETRA      2151       1    1350    1408    1409    1410
CTETRA      2152       1     229     225     224    1411
CTETRA      2153       1    1350    1408    1410     954
CTETRA      2154       1    1350     221    1412    1204
CTETRA      2155       1     220     221    1350     227
CTETRA      2156       1    1350     954    1413     955
CTETRA      2157       1     385     381    1414    1041
CTETRA      2158       1     381    1415    1416    1060
CTETRA      2159       1     384     427     426     425
CTETRA      2160       1     381    1416     379     382
CTETRA      2161       1     429    1036     381     426
CTETRA      2162       1     620    1417     280     279
CTETRA      2163       1     620     706    1418    1417
CTETRA      2164       1    1419    1418     621     620
CTETRA      2165       1    1420    1421    1422    1423
CTETRA      2166       1     620    1424    1419    1425
CTETRA      2167       1    1426    1427    1428    1429
CTETRA      2168       1    1430    1431    1432    1433
CTETRA      2169       1    1429    1428    1426    1434
CTETRA      2170       1    1429    1435    1436    1437
CTETRA      2171       1    1429    1438    1439    1428
CTETRA      2172       1     959     944    1440     945
CTETRA      2173       1    1429    1441    1427    1439
CTETRA      2174       1    1109    1219    1442    1218
CTETRA      2175       1    1109    1388    1110    1112
CTETRA      2176       1    1115    1389    1443    1388
CTETRA      2177       1    1109    1110    1115    1114
CTETRA      2178       1    1115    1221    1398    1444
CTETRA      2179       1    1445     989    6488    6489
CTETRA      2180       1    1115    1110    1446    1114
CTETRA      2181       1    1113    1115    1398    1399
CTETRA      2182       1     748     266     268     265
CTETRA      2183       1     268    1026     110     103
CTETRA      2184       1     411     907     908     109
CTETRA      2185       1     433     825     549     548
CTETRA      2186       1     452     547     453     546
CTETRA      2187       1     465     545     548     555
CTETRA      2188       1     853     320     621    1447
CTETRA      2189       1     853    1448    1326    1449
CTETRA      2190       1     853     852     854    1326
CTETRA      2191       1     853     621     320     861
CTETRA      2192       1      84     288     287    1218
CTETRA      2193       1     851    1450     963    1451
CTETRA      2194       1     851     292     289     847
CTETRA      2195       1     289     847    1217     848
CTETRA      2196       1    1042    1044    1249    1452
CTETRA      2197       1     882    1042    1044     258
CTETRA      2198       1    1453    1454    1455    1430
CTETRA      2199       1     687     760     210     756
CTETRA      2200       1    1074    1036    1456    1415
CTETRA      2201       1    1042    1249    1044     536
CTETRA      2202       1    1042     882     877    1043
CTETRA      2203       1     460    4919    4951    4952
CTETRA      2204       1     877     883    1042    1226
CTETRA      2205       1     198     734     736     467
CTETRA      2206       1     578     577     567     568
CTETRA      2207       1     398      11     429       9
CTETRA      2208       1     198     173     467     736
CTETRA      2209       1     182      27     180     448
CTETRA      2210       1     182     181     915     180
CTETRA      2211       1     182     576     575     448
CTETRA      2212       1    1312     387     899     650
CTETRA      2213       1    1457    4252    4258    4259
CTETRA      2214       1     181     179     735    1159
CTETRA      2215       1     578     568     567     387
CTETRA      2216       1    1312     448     449      27
CTETRA      2217       1    1312      27     183     387
CTETRA      2218       1    1458     802    1459     397
CTETRA      2219       1    1458     599    1459    1460
CTETRA      2220       1    1458     224    1270    1461
CTETRA      2221       1     557     562     564     560
CTETRA      2222       1     562     560    1462     564
CTETRA      2223       1     562     558     868     560
CTETRA      2224       1     562     563    1463    1352
CTETRA      2225       1     226    1271     984     972
CTETRA      2226       1     985     836     832     983
CTETRA      2227       1     836     984     604     483
CTETRA      2228       1     984     983    1271     483
CTETRA      2229       1     483     983    1271     834
CTETRA      2230       1    1077    1464    1465    1466
CTETRA      2231       1    1467    1468    1469    1470
CTETRA      2232       1     397     334     365     332
CTETRA      2233       1     333     604     602    1471
CTETRA      2234       1     527     439     522     982
CTETRA      2235       1     226     483     984    1271
CTETRA      2236       1     836     984    1471     604
CTETRA      2237       1      43     604     323     871
CTETRA      2238       1     836     483     604     323
CTETRA      2239       1     315     309    1472    1284
CTETRA      2240       1     315    1472     309     293
CTETRA      2241       1     594    1284     315    1183
CTETRA      2242       1     157     315     309     293
CTETRA      2243       1     152      71     470     285
CTETRA      2244       1     285     916     470     152
CTETRA      2245       1    1473    4867    1474    4879
CTETRA      2246       1    1475    1476    6452    6453
CTETRA      2247       1    1477    5241    1478    5242
CTETRA      2248       1     594     315     787    1183
CTETRA      2249       1    1206     315    1208     963
CTETRA      2250       1     315     787    1208     965
CTETRA      2251       1     469    1074    1479     380
CTETRA      2252       1    1074    1415     380    1036
CTETRA      2253       1    1074    1375    1479    1480
CTETRA      2254       1    1074    1430    1073    1375
CTETRA      2255       1    1074    1481    1480    1482
CTETRA      2256       1    1074    1430    1375    1480
CTETRA      2257       1    1074    1070    1375    1073
CTETRA      2258       1    1483    1465    1466    1484
CTETRA      2259       1     674     616     863    1024
CTETRA      2260       1      53      50      25      51
CTETRA      2261       1     308      89     145     614
CTETRA      2262       1     122     123     674     121
CTETRA      2263       1     674     616     142     319
CTETRA      2264       1     165     307     268     103
CTETRA      2265       1     307     235     408     360
CTETRA      2266       1      89      17     615     743
CTETRA      2267       1     615    1137     587    1485
CTETRA      2268       1     615    1485     587     580
CTETRA      2269       1      97     743    1135    1486
CTETRA      2270       1     588    1081      93     863
CTETRA      2271       1      89      97     743     511
CTETRA      2272       1    1487    1488    6301    6302
CTETRA      2273       1      62     232     655     652
CTETRA      2274       1      88      97     443      96
CTETRA      2275       1      97      96    1489    1132
CTETRA      2276       1     443      96      97    1132
CTETRA      2277       1    4825    1490    4838    1491
CTETRA      2278       1    1492    1493    1494    1495
CTETRA      2279       1     288    1496     290     310
CTETRA      2280       1    1430    1454    1433    1497
CTETRA      2281       1    1013    1498    1499    1016
CTETRA      2282       1     242    4943    4930    4929
CTETRA      2283       1    1498     466    1077    1295
CTETRA      2284       1    1498     466    1015    1072
CTETRA      2285       1    1022    1498    1499    1013
CTETRA      2286       1    1498    1075    1022    1500
CTETRA      2287       1    1498    1499    1077    1500
CTETRA      2288       1    1501    1077    1295    1499
CTETRA      2289       1    1077    1295    1499    1498
CTETRA      2290       1    6609     541    1502    6534
CTETRA      2291       1      15     145     236      89
CTETRA      2292       1     444     351     244     307
CTETRA      2293       1     239     243     250     987
CTETRA      2294       1     580     252     251    1485
CTETRA      2295       1    1503    1504    1505    1506
CTETRA      2296       1     820     616     936    1138
CTETRA      2297       1     277     144     278     320
CTETRA      2298       1     136     138     141     142
CTETRA      2299       1      18      17      92      93
CTETRA      2300       1     587     580    1485     252
CTETRA      2301       1     278     277     620     280
CTETRA      2302       1     588      17     852     861
CTETRA      2303       1     238     147     145     237
CTETRA      2304       1    1418     278    1447     320
CTETRA      2305       1     620    1425    1419    1507
CTETRA      2306       1     620     281     958    1424
CTETRA      2307       1     958     620     277     281
CTETRA      2308       1    1508    1509     187    1510
CTETRA      2309       1     105    5556    5481    5480
CTETRA      2310       1    1511    1512     621    1419
CTETRA      2311       1    1418    1513    1419    1512
CTETRA      2312       1     620    1513    1418     706
CTETRA      2313       1    1348    1360    1508    1347
CTETRA      2314       1    1418    1447    1514    1512
CTETRA      2315       1    1515    1516    5052    5053
CTETRA      2316       1    1512    1447     621    1418
CTETRA      2317       1    1348    1508    1360    1517
CTETRA      2318       1     693     827     695     736
CTETRA      2319       1     311     101     157     108
CTETRA      2320       1     694    1285     828     829
CTETRA      2321       1    1518     828    1202     201
CTETRA      2322       1    1346    1349    1348    1519
CTETRA      2323       1    1516    5053    4891    4892
CTETRA      2324       1     654     782     698     961
CTETRA      2325       1     727     346     729     581
CTETRA      2326       1     343     346     444     344
CTETRA      2327       1     614    1135     743     913
CTETRA      2328       1     728     729     778     925
CTETRA      2329       1     409     235     200     781
CTETRA      2330       1     487     497     492     498
CTETRA      2331       1     499     489    1520     487
CTETRA      2332       1     487     600     488     332
CTETRA      2333       1     763     118     449     721
CTETRA      2334       1     671     864     491     383
CTETRA      2335       1     626     864     491     494
CTETRA      2336       1     488     489    1056     600
CTETRA      2337       1     487     490     489     494
CTETRA      2338       1    1521    1522    1523    1524
CTETRA      2339       1    1103     449     448     773
CTETRA      2340       1     449     120      21     448
CTETRA      2341       1    1312      27     449     183
CTETRA      2342       1    1525    1522    1349    1519
CTETRA      2343       1     787     653     779     927
CTETRA      2344       1     787    1146     927     779
CTETRA      2345       1     787     965     782     697
CTETRA      2346       1     614     743    1135     511
CTETRA      2347       1     308     582     581     614
CTETRA      2348       1     277     621     321     320
CTETRA      2349       1     120     122     773     121
CTETRA      2350       1     145     252     619     239
CTETRA      2351       1     960    1526    1527    1239
CTETRA      2352       1     960    1527    1526    1133
CTETRA      2353       1     232     728     407     655
CTETRA      2354       1     960    1527    1133     731
CTETRA      2355       1      96     443    1202    1132
CTETRA      2356       1     594     309    1275     781
CTETRA      2357       1     200     309     594     781
CTETRA      2358       1     778     779    1189     780
CTETRA      2359       1     409     780     594     779
CTETRA      2360       1     407     780     779     778
CTETRA      2361       1     652     654    1202     961
CTETRA      2362       1    1154     927    1528     961
CTETRA      2363       1     927    1528     961     924
CTETRA      2364       1    1529    1519    1508    1530
CTETRA      2365       1     924     925     926    1531
CTETRA      2366       1     924    1152     927    1528
CTETRA      2367       1     924     925    1531    1532
CTETRA      2368       1    1533    1524    1534    1535
CTETRA      2369       1    1536    1537    1538    1539
CTETRA      2370       1    1045    1141     501     504
CTETRA      2371       1    1045     753    1539     754
CTETRA      2372       1    1522    1540    1541    1542
CTETRA      2373       1    1543    1537    1539     754
CTETRA      2374       1    1544    5661     455    1545
CTETRA      2375       1    5510    1546    5435    1547
CTETRA      2376       1     780     781    1272     347
CTETRA      2377       1     346     682     345     729
CTETRA      2378       1     926     779    1189     778
CTETRA      2379       1     409     197     782     787
CTETRA      2380       1    1515    5053    5052    5054
CTETRA      2381       1    1548    6381    1549    1550
CTETRA      2382       1     346     778     345     347
CTETRA      2383       1     407     926     778     779
CTETRA      2384       1     821     625    1177     721
CTETRA      2385       1     491     365     366     332
CTETRA      2386       1     625     824    1551    1225
CTETRA      2387       1     327     329     763     721
CTETRA      2388       1     430     441     434     716
CTETRA      2389       1     324     328     497     525
CTETRA      2390       1     625     720     439    1225
CTETRA      2391       1     441     439     720     522
CTETRA      2392       1    1087    5362    1552     635
CTETRA      2393       1    1553     455    1554    1544
CTETRA      2394       1     803     806    1111    1555
CTETRA      2395       1     803    1556    1557     805
CTETRA      2396       1     804    1461     802     806
CTETRA      2397       1     804     802    1458     397
CTETRA      2398       1     803     533    1557    1383
CTETRA      2399       1     803     533     287     531
CTETRA      2400       1     803     805     806    1555
CTETRA      2401       1     427     633    1071    1558
CTETRA      2402       1     455    1544    1545    1559
CTETRA      2403       1     468    1071    1070     427
CTETRA      2404       1     426    1380     427    1036
CTETRA      2405       1    1547     455    5510    1546
CTETRA      2406       1    1070    1072     468     466
CTETRA      2407       1     386      11     423     567
CTETRA      2408       1     469    1036     380       9
CTETRA      2409       1     166      41      45     204
CTETRA      2410       1     430     438     824     439
CTETRA      2411       1    1225    1224      39     438
CTETRA      2412       1     430     825     438     431
CTETRA      2413       1     430     440     716     432
CTETRA      2414       1     825    1224     823     824
CTETRA      2415       1     430     434     442     461
CTETRA      2416       1     407     778     926     925
CTETRA      2417       1    1560    4938    1561    1562
CTETRA      2418       1     407     779     927     926
CTETRA      2419       1    1563    4611    4612    4614
CTETRA      2420       1     655     961     924     653
CTETRA      2421       1     201     652    1202     919
CTETRA      2422       1     443     960     652    1202
CTETRA      2423       1      62     199     654     653
CTETRA      2424       1      62     652     653     654
CTETRA      2425       1      87      89     234     507
CTETRA      2426       1     787     653     927     782
CTETRA      2427       1     481     886    1564     758
CTETRA      2428       1     481     808    1564     886
CTETRA      2429       1     886    1364     758     888
CTETRA      2430       1     886     758    1364    1564
CTETRA      2431       1     886    1565     888    1019
CTETRA      2432       1     886     888    1565    1564
CTETRA      2433       1     808    1017    1564     886
CTETRA      2434       1    1566     531    1370    1345
CTETRA      2435       1    1567    1566    1111    1568
CTETRA      2436       1    1568    1569    1567    1566
CTETRA      2437       1     455    1570    1546    1554
CTETRA      2438       1    1571    1566    1345    1572
CTETRA      2439       1    1566    1572    1571    1573
CTETRA      2440       1    1566     806    1574    1569
CTETRA      2441       1     803    1111    1391    1114
CTETRA      2442       1     803    1566     531    1391
CTETRA      2443       1     260     262     885     758
CTETRA      2444       1     271     505     363     364
CTETRA      2445       1     885     475     890    1098
CTETRA      2446       1     882     210     957     760
CTETRA      2447       1     212     536    1044     537
CTETRA      2448       1     258    1044     210     536
CTETRA      2449       1    5347    5359    5346    1085
CTETRA      2450       1     258    1043     475    1098
CTETRA      2451       1     258     882    1043     756
CTETRA      2452       1    1575    1003     768     672
CTETRA      2453       1     455    1559    1576    1570
CTETRA      2454       1    1577    6485    6560    6561
CTETRA      2455       1    1004      85      69    1003
CTETRA      2456       1       9      67      10     379
CTETRA      2457       1     338    1578    6410    6486
CTETRA      2458       1      69    1416     768     382
CTETRA      2459       1      69    1416     379    1003
CTETRA      2460       1     358    1579    1539    1580
CTETRA      2461       1     343    1255     359     348
CTETRA      2462       1     359    1581     348    1255
CTETRA      2463       1     359    1255     349    1579
CTETRA      2464       1     821     823    1551     824
CTETRA      2465       1     142     616     820     830
CTETRA      2466       1     823    1551     824    1224
CTETRA      2467       1     821     823    1306    1551
CTETRA      2468       1     141     821     820     936
CTETRA      2469       1    1234     839    1055    1233
CTETRA      2470       1    1234     839    1233    1224
CTETRA      2471       1     454     462    1582     838
CTETRA      2472       1     482     839     830     823
CTETRA      2473       1     141     482     820     821
CTETRA      2474       1    5820    1583    5821    5896
CTETRA      2475       1    1584    1585    1586     304
CTETRA      2476       1    1587    1588     982    1405
CTETRA      2477       1    1588    1589    1590    1124
CTETRA      2478       1    1588    1405    1587    1377
CTETRA      2479       1    1588    1589    1591    1378
CTETRA      2480       1     620     280     281     279
CTETRA      2481       1     282     683     281     279
CTETRA      2482       1    1592    6931    1593    1594
CTETRA      2483       1     309     293    1472     310
CTETRA      2484       1     232     407     728     408
CTETRA      2485       1     157     293     309     310
CTETRA      2486       1     197     782     965     695
CTETRA      2487       1     309     781    1025    1275
CTETRA      2488       1     502    1268     501     506
CTETRA      2489       1     502    1342    1249     503
CTETRA      2490       1     502     501    1268    1267
CTETRA      2491       1    1045     501    1538     500
CTETRA      2492       1     264     506     501     500
CTETRA      2493       1     502     503     501    1342
CTETRA      2494       1     501     503    1141    1342
CTETRA      2495       1    1584    4725    4726    4724
CTETRA      2496       1     923     702    1595     278
CTETRA      2497       1    1308     923    1305     702
CTETRA      2498       1    1234     923    1308    1232
CTETRA      2499       1    1232     923     702    1595
CTETRA      2500       1     923     278    1595     922
CTETRA      2501       1     830     142     317     140
CTETRA      2502       1    1592    1593    6931    1596
CTETRA      2503       1     143     922     140     808
CTETRA      2504       1     317     319     142     616
CTETRA      2505       1     830    1234     839    1055
CTETRA      2506       1     321     588     861      17
CTETRA      2507       1     278    1595    1597     702
CTETRA      2508       1     923    1305     702     278
CTETRA      2509       1    1596    5540    1586    1598
CTETRA      2510       1     278     320    1303    1447
CTETRA      2511       1    1418     320    1447     621
CTETRA      2512       1    1418     278    1417    1597
CTETRA      2513       1    1055    1232    1599     922
CTETRA      2514       1     844    1600    1332    1601
CTETRA      2515       1    1363    1334    1600    1602
CTETRA      2516       1    1363     362     844    1334
CTETRA      2517       1    1603    1602    1334    1363
CTETRA      2518       1    1596    1586    5540    6933
CTETRA      2519       1    1363    1324     362    1603
CTETRA      2520       1    1363    1268    1265    1324
CTETRA      2521       1    1363    1603    1602    1268
CTETRA      2522       1    1165     965    1316     964
CTETRA      2523       1     965    1316     964     850
CTETRA      2524       1    1604    1605    6516    1606
CTETRA      2525       1    1315     850     916     285
CTETRA      2526       1    1607    5032    1608    5030
CTETRA      2527       1    1609     304    1610    1611
CTETRA      2528       1     847     851    1373     286
CTETRA      2529       1    1596    1598     304    1610
CTETRA      2530       1    1612    1613    1600    1614
CTETRA      2531       1    1612    1600    1613    1333
CTETRA      2532       1    1333     651    1615    1612
CTETRA      2533       1    1596    1611    1593    1610
CTETRA      2534       1    1612    1600    1333    1334
CTETRA      2535       1    1612    1615    1614    1616
CTETRA      2536       1     250     987    1358    1617
CTETRA      2537       1     250     986     788    1358
CTETRA      2538       1     269     351     358     753
CTETRA      2539       1     250     790     788     243
CTETRA      2540       1     444     582     344     581
CTETRA      2541       1     619     689     252    1618
CTETRA      2542       1     239     245     145     580
CTETRA      2543       1    1337     537    1142     542
CTETRA      2544       1    1619    1620     208    1621
CTETRA      2545       1    1203     253    1622    1623
CTETRA      2546       1    1203     254    1623    1624
CTETRA      2547       1    1203    1339    1624    1625
CTETRA      2548       1    1251    1252    1253    1626
CTETRA      2549       1    1203     253    1627    1622
CTETRA      2550       1      97     743     511    1135
CTETRA      2551       1     674     121     936     773
CTETRA      2552       1     863    1628    1081    1381
CTETRA      2553       1     863    1628    1629     862
CTETRA      2554       1    1630    1631    1632    1633
CTETRA      2555       1     863     319    1629     616
CTETRA      2556       1     148     285     152     316
CTETRA      2557       1     840    1024     122     863
CTETRA      2558       1     863    1628    1381    1024
CTETRA      2559       1     520     648     650     764
CTETRA      2560       1     520     522     764     572
CTETRA      2561       1     520     648     389     650
CTETRA      2562       1     901    5118     939    5089
CTETRA      2563       1     517     520     526     522
CTETRA      2564       1    1122     525     519     520
CTETRA      2565       1     328     366      43     497
CTETRA      2566       1     518     519     520     389
CTETRA      2567       1     328     114     184      29
CTETRA      2568       1    1594    5766    6930    6929
CTETRA      2569       1     207      34     395     543
CTETRA      2570       1      77      85      78      80
CTETRA      2571       1     391     797     738     670
CTETRA      2572       1     533     396     116     531
CTETRA      2573       1     114     366     492     491
CTETRA      2574       1     479     834     647     483
CTETRA      2575       1    6765    6884    5055    5059
CTETRA      2576       1     288     287    1218    1634
CTETRA      2577       1       2      71      68      66
CTETRA      2578       1     148     311     288     293
CTETRA      2579       1      84    1218     291     288
CTETRA      2580       1      84     291      83     289
CTETRA      2581       1    1628    1635    1636    1158
CTETRA      2582       1    1636    1637    1638    1635
CTETRA      2583       1     863     840    1381    1081
CTETRA      2584       1    1636    1081    1639    1628
CTETRA      2585       1    1640    1641    1620    1642
CTETRA      2586       1    1628    1081    1639     862
CTETRA      2587       1    1637    1628    1636    1639
CTETRA      2588       1     602    1471     985     603
CTETRA      2589       1     602     499     600    1643
CTETRA      2590       1    1644    5223    5222    5282
CTETRA      2591       1     872     499     602    1645
CTETRA      2592       1    1646     860    1643    1645
CTETRA      2593       1    1647    1631    1648    1642
CTETRA      2594       1     602     603    1649    1643
CTETRA      2595       1     602    1649     985     860
CTETRA      2596       1     463     834    1353     714
CTETRA      2597       1     479     480    1127    1258
CTETRA      2598       1     464    1259    1127    1650
CTETRA      2599       1     464    1100    1127    1259
CTETRA      2600       1     464    1650    1127    1564
CTETRA      2601       1     464     457    1582    1564
CTETRA      2602       1     886     676     808    1019
CTETRA      2603       1     808    1017     457    1564
CTETRA      2604       1     830     616     820    1306
CTETRA      2605       1    1055     838     808    1017
CTETRA      2606       1    1231    1599    1582     838
CTETRA      2607       1     376     481     808     457
CTETRA      2608       1     466     736     733     734
CTETRA      2609       1     174     694      63     736
CTETRA      2610       1     181    1355     579     915
CTETRA      2611       1      12     386     384     388
CTETRA      2612       1      64     181     179     735
CTETRA      2613       1    5456    4712    7018    7019
CTETRA      2614       1    1317    1318     470     380
CTETRA      2615       1    1317    1319    1651    1652
CTETRA      2616       1    1315     916    1317     470
CTETRA      2617       1    1653    1654    1655    1656
CTETRA      2618       1    1657    6624    6548    6623
CTETRA      2619       1    1317    1658     916    1316
CTETRA      2620       1    5397    6960    4439    6959
CTETRA      2621       1     250     790     251    1659
CTETRA      2622       1     243     987     238     986
CTETRA      2623       1     788     842    1660    1358
CTETRA      2624       1     790    1359    1170    1659
CTETRA      2625       1    1653    1655    1654    1661
CTETRA      2626       1     361     789     364     363
CTETRA      2627       1    1087    5336    1086    5348
CTETRA      2628       1     250     790    1358     788
CTETRA      2629       1    1662     451    1663     453
CTETRA      2630       1     451    1663     453     547
CTETRA      2631       1     547    1663    1198     451
CTETRA      2632       1     547     453     546    1663
CTETRA      2633       1     452     451     547     465
CTETRA      2634       1    1664     832     983    1665
CTETRA      2635       1    1664    1666     983    1667
CTETRA      2636       1     427     468    1071     876
CTETRA      2637       1     124      23     183      22
CTETRA      2638       1     557     561     560     564
CTETRA      2639       1     557     559     562     558
CTETRA      2640       1     424     425     558     560
CTETRA      2641       1     565     423     468     579
CTETRA      2642       1     428     468     876     566
CTETRA      2643       1    1653    1655    1201    1668
CTETRA      2644       1     868     425    1041    1669
CTETRA      2645       1     814     815     798    1670
CTETRA      2646       1     425    1558     426    1669
CTETRA      2647       1     425    1558     427     426
CTETRA      2648       1     787    1146     779    1184
CTETRA      2649       1    1146    1157    1147    1189
CTETRA      2650       1      95     840    1083     605
CTETRA      2651       1    1063    1671    1382    1437
CTETRA      2652       1    1382     919    1672    1671
CTETRA      2653       1    1063     919    1671      96
CTETRA      2654       1     605    1083    1673    1381
CTETRA      2655       1    1159    1673    1382    1674
CTETRA      2656       1    1063    1437    1382    1439
CTETRA      2657       1    1063    1439    1083      95
CTETRA      2658       1    1025    1027    1675    1243
CTETRA      2659       1     900     908     907     273
CTETRA      2660       1     288    1027    1496     310
CTETRA      2661       1    1027    1675     310    1025
CTETRA      2662       1     978     288    1027    1676
CTETRA      2663       1     311     288     293     310
CTETRA      2664       1     124      73     114     184
CTETRA      2665       1    1496    1677     310    1027
CTETRA      2666       1     311    1025    1027     310
CTETRA      2667       1    1678    1679    1680    1681
CTETRA      2668       1    1678    1679    1460    1682
CTETRA      2669       1    1678     225     972    1683
CTETRA      2670       1    1678    1270    1682    1460
CTETRA      2671       1    1678     972     225    1270
CTETRA      2672       1    1398     589     590    1221
CTETRA      2673       1    1219     291    1218    1221
CTETRA      2674       1    1221     291    1218    1113
CTETRA      2675       1    1655    1684    1656    1685
CTETRA      2676       1    1686    4599    4603    4600
CTETRA      2677       1      68      69     672     383
CTETRA      2678       1     114      74     112     383
CTETRA      2679       1    1655    1684    1687    1656
CTETRA      2680       1      77      78      83      79
CTETRA      2681       1     671     864     673     490
CTETRA      2682       1     626     768     383     864
CTETRA      2683       1     184      73     648     183
CTETRA      2684       1     763     899    1175     449
CTETRA      2685       1    1122     520     937    1126
CTETRA      2686       1     422     627      12     389
CTETRA      2687       1    1655    1668    1656    1687
CTETRA      2688       1     388     558    1062     559
CTETRA      2689       1     557     563     389     632
CTETRA      2690       1    1122     526     572    1688
CTETRA      2691       1     389     632     563    1126
CTETRA      2692       1     384     386     424     388
CTETRA      2693       1     394     804     223     224
CTETRA      2694       1     394     223     533     395
CTETRA      2695       1     223    1689     224     805
CTETRA      2696       1     223    1557    1121     542
CTETRA      2697       1    1416    1067    1060    1051
CTETRA      2698       1     381    1416     382    1414
CTETRA      2699       1    1416    1415     379    1051
CTETRA      2700       1      69    1416     382     379
CTETRA      2701       1    1690     913    1691    1692
CTETRA      2702       1    1690    1693    1694    1695
CTETRA      2703       1    1690    1169    1691     913
CTETRA      2704       1    1690    1693    1691    1696
CTETRA      2705       1     381     385     429     426
CTETRA      2706       1      82     997     289     390
CTETRA      2707       1     385     643    1062    1297
CTETRA      2708       1      67     470      66     380
CTETRA      2709       1      69    1416    1003     768
CTETRA      2710       1     382     769     768     643
CTETRA      2711       1    1416     769     382    1414
CTETRA      2712       1     225    1682    1408    1683
CTETRA      2713       1    1678    1270     225    1682
CTETRA      2714       1    1678    1270    1697     972
CTETRA      2715       1    1350    1408     225    1411
CTETRA      2716       1     229     224     225     227
CTETRA      2717       1     225    1411    1408    1682
CTETRA      2718       1     774    1129    1698    1034
CTETRA      2719       1     774    1129    1034    1357
CTETRA      2720       1     774    1699     775    1700
CTETRA      2721       1    1129     774    1701    1355
CTETRA      2722       1     774     777    1702     775
CTETRA      2723       1    1703    1433    1430    1465
CTETRA      2724       1    1484    1433    1704    1705
CTETRA      2725       1     963    1373    1450     851
CTETRA      2726       1     286     850     848     285
CTETRA      2727       1     116     978     287     288
CTETRA      2728       1     289     285     848     997
CTETRA      2729       1     383      68       2     112
CTETRA      2730       1     197     916     695     965
CTETRA      2731       1     963     286    1373     851
CTETRA      2732       1     309     310    1472    1284
CTETRA      2733       1     365      43     366     332
CTETRA      2734       1     257     166     272     204
CTETRA      2735       1    1043     364    1046     841
CTETRA      2736       1    1043     364    1098    1046
CTETRA      2737       1     877    1043    1706    1226
CTETRA      2738       1     883    1042     882     877
CTETRA      2739       1    1042     883    1452    1226
CTETRA      2740       1    1043     841    1706    1226
CTETRA      2741       1    1043     756    1365    1098
CTETRA      2742       1    1042    1043    1226     505
CTETRA      2743       1     557    1707     632     569
CTETRA      2744       1    1708    1709    1710    1711
CTETRA      2745       1     197     316     965     315
CTETRA      2746       1    1712    6530    1713    6605
CTETRA      2747       1     578     387    1312     568
CTETRA      2748       1    1714    1715    1716    1717
CTETRA      2749       1     715     832     833    1718
CTETRA      2750       1     715     835    1323    1719
CTETRA      2751       1     835     324     717     434
CTETRA      2752       1    1720    1187    1347    1721
CTETRA      2753       1     394     533      31     395
CTETRA      2754       1    1187    1720    1722    1723
CTETRA      2755       1     394     396     365      31
CTETRA      2756       1     223     533     395    1121
CTETRA      2757       1     533    1383     395    1121
CTETRA      2758       1     562     557     563    1352
CTETRA      2759       1     562    1724     559    1352
CTETRA      2760       1     562    1352    1462    1724
CTETRA      2761       1     562     560     868    1462
CTETRA      2762       1     425     558     560     868
CTETRA      2763       1     386      11     567      13
CTETRA      2764       1     557     563     632    1707
CTETRA      2765       1     720    1314    1725      36
CTETRA      2766       1     720     721     327     763
CTETRA      2767       1     720      36    1225    1177
CTETRA      2768       1     522     720    1725     439
CTETRA      2769       1     764     720    1725     522
CTETRA      2770       1      42     327     184     328
CTETRA      2771       1     396     531     533     397
CTETRA      2772       1     978     908     395    1383
CTETRA      2773       1     531     533     287     116
CTETRA      2774       1     804    1458     802    1461
CTETRA      2775       1     223     533    1557     805
CTETRA      2776       1     206     222     219     205
CTETRA      2777       1      20      50      65     119
CTETRA      2778       1       4     173       3      14
CTETRA      2779       1    1726    1727     597    5257
CTETRA      2780       1     916     695     827     736
CTETRA      2781       1     916     827     695    1165
CTETRA      2782       1    1315     850     848     964
CTETRA      2783       1     850     916     965    1316
CTETRA      2784       1     916    1165     965    1316
CTETRA      2785       1    1728    5327    1729    5328
CTETRA      2786       1    1720    1722    1723    1730
CTETRA      2787       1    1315    1318     285     470
CTETRA      2788       1    1315     916     850    1316
CTETRA      2789       1    1731    5228    5235    4894
CTETRA      2790       1     774    1355    1357    1674
CTETRA      2791       1     623    6889    5068    6888
CTETRA      2792       1    1702     775    1732    1674
CTETRA      2793       1     576    1159    1702    1733
CTETRA      2794       1    1702    1734    1732    1735
CTETRA      2795       1     774    1701    1355    1702
CTETRA      2796       1     774    1674    1702    1355
CTETRA      2797       1     576    1734    1702    1736
CTETRA      2798       1    1702    1736    1737    1701
CTETRA      2799       1    1702    1737    1734    1735
CTETRA      2800       1     687     480     484     759
CTETRA      2801       1    1257     480     484    1258
CTETRA      2802       1     206     219     210     205
CTETRA      2803       1     232     655     652     443
CTETRA      2804       1     614     913    1690    1135
CTETRA      2805       1     614    1169    1690     913
CTETRA      2806       1     510     443      97    1132
CTETRA      2807       1     510     730    1738    1739
CTETRA      2808       1    1739     730    1135     510
CTETRA      2809       1     516     443     510     731
CTETRA      2810       1     605    1083    1063    1673
CTETRA      2811       1    1159    1063    1382    1673
CTETRA      2812       1    1382     775    1438    1700
CTETRA      2813       1     775     774    1700    1382
CTETRA      2814       1    1382     735    1357    1700
CTETRA      2815       1    1382     735    1674    1357
CTETRA      2816       1    1382    1740     735    1700
CTETRA      2817       1    1720    1741    1722    1742
CTETRA      2818       1      86      88      97      89
CTETRA      2819       1     398     470       3       9
CTETRA      2820       1     182     579     577     915
CTETRA      2821       1     578    1312     387      27
CTETRA      2822       1     424     561     428     633
CTETRA      2823       1     557     389     386     632
CTETRA      2824       1    1103     575    1312    1160
CTETRA      2825       1    1312      27     575     448
CTETRA      2826       1     294    4951     228    4950
CTETRA      2827       1     174     198     736     173
CTETRA      2828       1     182     399     578     579
CTETRA      2829       1      64     735     179     201
CTETRA      2830       1     907     747    1543    1243
CTETRA      2831       1     375     890     475     675
CTETRA      2832       1     211     536     259     258
CTETRA      2833       1     271     243     475     364
CTETRA      2834       1     358     269     362     351
CTETRA      2835       1     164     110     411     109
CTETRA      2836       1     587     145     252     619
CTETRA      2837       1     743     861    1486     852
CTETRA      2838       1     266     269     500     753
CTETRA      2839       1    1743    1744    1745    1490
CTETRA      2840       1     246     239     245     243
CTETRA      2841       1     138     121     410     936
CTETRA      2842       1     616     830    1746    1306
CTETRA      2843       1     450    1138     936     773
CTETRA      2844       1     136     140     139     143
CTETRA      2845       1     238     237     375     147
CTETRA      2846       1     447     840    1024     122
CTETRA      2847       1     147     619     282     238
CTETRA      2848       1     138     141     142     936
CTETRA      2849       1     280    1595     922    1011
CTETRA      2850       1     140     457     376     808
CTETRA      2851       1     615     743    1137     913
CTETRA      2852       1     282     922     808    1011
CTETRA      2853       1     953    1747    5901    5826
CTETRA      2854       1     243    1046     788     986
CTETRA      2855       1    6784    4979    6864    4976
CTETRA      2856       1     675     676     375     890
CTETRA      2857       1     250     790     246     251
CTETRA      2858       1    1748     986    1048    1012
CTETRA      2859       1     807     675     238    1012
CTETRA      2860       1     619     252     689     987
CTETRA      2861       1     619     252     281    1618
CTETRA      2862       1     516     730     581     727
CTETRA      2863       1     679    1169    1749    1696
CTETRA      2864       1      18     319     674     142
CTETRA      2865       1     679    1169     651    1749
CTETRA      2866       1     679     730    1696    1750
CTETRA      2867       1     679     682     730    1750
CTETRA      2868       1     778     925    1751     926
CTETRA      2869       1    1144    1146    1147     926
CTETRA      2870       1    1146    1147     926    1189
CTETRA      2871       1    1714    1715    1752    1716
CTETRA      2872       1     409     199     653     782
CTETRA      2873       1     780     347    1272     348
CTETRA      2874       1     181    1355    1159     735
CTETRA      2875       1    1189     778    1281     926
CTETRA      2876       1     582     614     914    1169
CTETRA      2877       1     582     581     614     679
CTETRA      2878       1     307     351     268     360
CTETRA      2879       1     359    1580     360    1272
CTETRA      2880       1     516     727     728     731
CTETRA      2881       1     234     165      53     235
CTETRA      2882       1     581     679     682     730
CTETRA      2883       1     408     728     507     346
CTETRA      2884       1    1122     525    1376     519
CTETRA      2885       1     487     497     499     332
CTETRA      2886       1     324     497      43     871
CTETRA      2887       1     497    1321     498     499
CTETRA      2888       1    1753     466     733    1295
CTETRA      2889       1    1753     467    1658     736
CTETRA      2890       1    1753     466     467     736
CTETRA      2891       1    1753    1658    1754     827
CTETRA      2892       1    1753     733     736     827
CTETRA      2893       1      23      27     578     387
CTETRA      2894       1      28      27      21     180
CTETRA      2895       1     916     467    1658     470
CTETRA      2896       1     399     468     423     579
CTETRA      2897       1     469     380     470       9
CTETRA      2898       1    1070     427     429     468
CTETRA      2899       1     398     429     469       9
CTETRA      2900       1     734     467     466     736
CTETRA      2901       1     957     882     883    1044
CTETRA      2902       1     220     954     757     227
CTETRA      2903       1     220    1350     221     955
CTETRA      2904       1     206     210     209     205
CTETRA      2905       1     687     757     761     759
CTETRA      2906       1    1755    1756    1757    1758
CTETRA      2907       1    1759    1755    1760    1757
CTETRA      2908       1     209     687     205     220
CTETRA      2909       1     261     481     480     262
CTETRA      2910       1    1238    1758    1761    1756
CTETRA      2911       1     229    1350     221     227
CTETRA      2912       1     978     908    1027     109
CTETRA      2913       1     257     375     261     260
CTETRA      2914       1     274    1342    1142    1141
CTETRA      2915       1     957    1204     221     537
CTETRA      2916       1     229    1689     223     542
CTETRA      2917       1     219     229     221     227
CTETRA      2918       1     229    1350    1411    1351
CTETRA      2919       1     588     852     853     861
CTETRA      2920       1     853    1326    1762     852
CTETRA      2921       1     854    1763     862     853
CTETRA      2922       1     854    1326    1764    1449
CTETRA      2923       1      93     840    1083      95
CTETRA      2924       1      93      95    1083    1082
CTETRA      2925       1     854    1082    1764     852
CTETRA      2926       1     839     462    1233    1101
CTETRA      2927       1     825     549     548     452
CTETRA      2928       1    1765    4899    4898    5196
CTETRA      2929       1     459     548     825     461
CTETRA      2930       1    1766    1767    1768    1769
CTETRA      2931       1     549    1101     825     433
CTETRA      2932       1     605      90      95     840
CTETRA      2933       1    1159    1382     735    1674
CTETRA      2934       1     852      93      97     743
CTETRA      2935       1     715     434    1719     981
CTETRA      2936       1     714     461     434     435
CTETRA      2937       1     981    1770    1771    1772
CTETRA      2938       1     715     981    1323    1773
CTETRA      2939       1     981    1719    1323    1587
CTETRA      2940       1     981    1774    1771    1587
CTETRA      2941       1     479     483     484     834
CTETRA      2942       1     463     461     454     458
CTETRA      2943       1     434     324     441     442
CTETRA      2944       1     463     461     714     465
CTETRA      2945       1     646     836     837     871
CTETRA      2946       1     434     420     442     461
CTETRA      2947       1     836     604     837     871
CTETRA      2948       1      43     333      30     604
CTETRA      2949       1     957    1249    1203     537
CTETRA      2950       1    1350    1204    1412    1351
CTETRA      2951       1    1204    1775    1412    1776
CTETRA      2952       1    1350    1408    1351    1409
CTETRA      2953       1    1204    1627    1412    1775
CTETRA      2954       1     957    1204    1627    1412
CTETRA      2955       1     359     360     351     347
CTETRA      2956       1    1580     358     351     753
CTETRA      2957       1     360    1272    1580    1026
CTETRA      2958       1    1766    1777    1778    1767
CTETRA      2959       1    1581    1539    1244    1779
CTETRA      2960       1    1580    1579    1539    1581
CTETRA      2961       1     359    1580    1272    1581
CTETRA      2962       1    1579     359    1580     358
CTETRA      2963       1    1234    1306     823    1224
CTETRA      2964       1     317    1303     616     161
CTETRA      2965       1     421     823     821     824
CTETRA      2966       1     432     434     435     981
CTETRA      2967       1     625    1177     720    1225
CTETRA      2968       1     821    1177     625    1551
CTETRA      2969       1     430     442     824     825
CTETRA      2970       1     454     461     463     465
CTETRA      2971       1     924     925    1532     731
CTETRA      2972       1     919    1063    1382     179
CTETRA      2973       1      58      62     199      60
CTETRA      2974       1     443     919      96    1202
CTETRA      2975       1     919    1671      96    1202
CTETRA      2976       1     179     201    1740     919
CTETRA      2977       1     987     619     239     238
CTETRA      2978       1     252    1617    1618     689
CTETRA      2979       1     252    1618    1780    1485
CTETRA      2980       1     350     651     446     445
CTETRA      2981       1     252    1485    1780     251
CTETRA      2982       1     308     614     581     511
CTETRA      2983       1    1781    1771    1782    1783
CTETRA      2984       1    1771    1772    1783    1784
CTETRA      2985       1    1771    1785    1587    1786
CTETRA      2986       1    1771    1772    1784    1787
CTETRA      2987       1    1766    1788    1778    1630
CTETRA      2988       1    1771    1774    1773    1787
CTETRA      2989       1    1771    1786    1774     629
CTETRA      2990       1     981    1771    1773    1772
CTETRA      2991       1     646     714     832     834
CTETRA      2992       1     832    1353     834     714
CTETRA      2993       1    1664    1353     832    1789
CTETRA      2994       1    1664    1667     983     834
CTETRA      2995       1    1664     832    1353     834
CTETRA      2996       1     549     433    1790    1791
CTETRA      2997       1     546     545     551     549
CTETRA      2998       1     549     462     551     546
CTETRA      2999       1     459     839     462     838
CTETRA      3000       1     839    1231    1233     462
CTETRA      3001       1     825     839     823    1224
CTETRA      3002       1     423     429     427     468
CTETRA      3003       1      23      27     387     183
CTETRA      3004       1     988    1355    1701     915
CTETRA      3005       1     428     427     876     468
CTETRA      3006       1     578    1312      27     575
CTETRA      3007       1    1792    1630    1766    1777
CTETRA      3008       1     578    1312     575     568
CTETRA      3009       1     565     569     568     988
CTETRA      3010       1     200     103     101     781
CTETRA      3011       1     103     101     781    1026
CTETRA      3012       1     900     273     907     754
CTETRA      3013       1     207      35     411     395
CTETRA      3014       1    1121     543     223     542
CTETRA      3015       1      31     395     978     109
CTETRA      3016       1     212     229     223     542
CTETRA      3017       1     212     536     211     210
CTETRA      3018       1    1793     907    1243    1027
CTETRA      3019       1    1794    1795    1796    1797
CTETRA      3020       1      49    5047    5059    5058
CTETRA      3021       1    1588    1376     526    1405
CTETRA      3022       1    1376    1405    1379    1321
CTETRA      3023       1    1376    1378    1123    1798
CTETRA      3024       1     525     526    1376    1405
CTETRA      3025       1    1376    1123     660    1798
CTETRA      3026       1     403    4776    4771    4768
CTETRA      3027       1     746     892    4758    4743
CTETRA      3028       1    1376    1799     498    1321
CTETRA      3029       1    1800    1801    4388    4368
CTETRA      3030       1     498     519    1376     525
CTETRA      3031       1     738     670    1571    1802
CTETRA      3032       1    1802     670     490     738
CTETRA      3033       1     391     670     671     672
CTETRA      3034       1     671     670     391     738
CTETRA      3035       1    1803    1804    1805    1806
CTETRA      3036       1    1807    1795    1808    1796
CTETRA      3037       1     916     695     965    1165
CTETRA      3038       1    1809    1807    1794    1810
CTETRA      3039       1     965    1165     695     697
CTETRA      3040       1    5404    6967    4364    6966
CTETRA      3041       1     787    1145     697     782
CTETRA      3042       1     594     780     781    1275
CTETRA      3043       1    1811    1793     275    1543
CTETRA      3044       1    1812     719     766     765
CTETRA      3045       1     907    1543    1793    1243
CTETRA      3046       1     907     273    1543     754
CTETRA      3047       1     900     536     543     274
CTETRA      3048       1     313     275     314    1813
CTETRA      3049       1     273    1813     908    1793
CTETRA      3050       1     273    1543     276     275
CTETRA      3051       1     615     913     614     743
CTETRA      3052       1     923    1232     922    1595
CTETRA      3053       1     144     142     317     319
CTETRA      3054       1     317     923    1814    1746
CTETRA      3055       1    1232    1599     922    1595
CTETRA      3056       1     280    1595     279    1417
CTETRA      3057       1     615    1485     580     914
CTETRA      3058       1     143     278     317     923
CTETRA      3059       1     616     317     830     142
CTETRA      3060       1     144     320     588     319
CTETRA      3061       1     588     853     320     861
CTETRA      3062       1     853     621    1762    1448
CTETRA      3063       1    1751    1281     926    1147
CTETRA      3064       1    1751    1281    1815    1816
CTETRA      3065       1    1751    1817    1254    1818
CTETRA      3066       1    1751    1819    1817    1816
CTETRA      3067       1    1751    1256    1817    1531
CTETRA      3068       1    1257    1820    1821     484
CTETRA      3069       1    1822     757     759    1823
CTETRA      3070       1     760    1824     761     956
CTETRA      3071       1     760    1096     756     761
CTETRA      3072       1     757     227     954     972
CTETRA      3073       1     220     762     757     954
CTETRA      3074       1     757    1823    1822     762
CTETRA      3075       1     687     756     759     761
CTETRA      3076       1     257     270     259     272
CTETRA      3077       1     763    1175     899     764
CTETRA      3078       1     764     720     763    1175
CTETRA      3079       1     434     715    1719     835
CTETRA      3080       1     527     982     716     439
CTETRA      3081       1     522     571     526     982
CTETRA      3082       1     522     526     571     572
CTETRA      3083       1     439     522     571    1725
CTETRA      3084       1    1122    1588     526    1124
CTETRA      3085       1    1825     726     718     719
CTETRA      3086       1     625     721     720    1177
CTETRA      3087       1     263     270     259     271
CTETRA      3088       1     139     141     295     376
CTETRA      3089       1     789     363     845     841
CTETRA      3090       1    1825     718     726    1826
CTETRA      3091       1     361     246     243     790
CTETRA      3092       1     263     272     265     536
CTETRA      3093       1     363     364    1043     841
CTETRA      3094       1    1043    1098     364     475
CTETRA      3095       1      85      78    1007     796
CTETRA      3096       1      78     997     390    1827
CTETRA      3097       1    4864    1474    4865    4880
CTETRA      3098       1      82     390      78     997
CTETRA      3099       1      77      79      83     797
CTETRA      3100       1    1828    5065    5066    5061
CTETRA      3101       1     672      85     391      80
CTETRA      3102       1    1829    1830    1378    1798
CTETRA      3103       1     530     738     531    1345
CTETRA      3104       1     250    1358     987     986
CTETRA      3105       1    1363    1603     362    1334
CTETRA      3106       1     361     362     789     363
CTETRA      3107       1     844    1332     843    1601
CTETRA      3108       1     363    1324     269     362
CTETRA      3109       1     789     845     844     843
CTETRA      3110       1     789     841     845    1831
CTETRA      3111       1     844     845    1832    1227
CTETRA      3112       1     725    6538    6463    6462
CTETRA      3113       1     853    1763    1447    1448
CTETRA      3114       1    1081      93    1083     854
CTETRA      3115       1     621    1137     958     861
CTETRA      3116       1      97      96      95    1082
CTETRA      3117       1     743    1486     861    1137
CTETRA      3118       1     861    1833    1137    1486
CTETRA      3119       1     615     587    1137     743
CTETRA      3120       1     246     582     251     651
CTETRA      3121       1      97     852    1486    1489
CTETRA      3122       1     122      93      18      92
CTETRA      3123       1     360    1026    1580     753
CTETRA      3124       1     614     581     730     679
CTETRA      3125       1     582    1169     251     651
CTETRA      3126       1      96      95    1834    1671
CTETRA      3127       1     307     103     360     268
CTETRA      3128       1     919     201    1518    1202
CTETRA      3129       1    1115    1389    1221    1444
CTETRA      3130       1      65     233     179      90
CTETRA      3131       1    1835      79    1836    1837
CTETRA      3132       1    1838    1839    1840    1841
CTETRA      3133       1    1842    4626    4641    4627
CTETRA      3134       1    1841    1838    1689    1843
CTETRA      3135       1    1844    1845    1840    1838
CTETRA      3136       1    1838     806    1844    1845
CTETRA      3137       1    1838    1411    1846    1839
CTETRA      3138       1    1840    1555    1844    1838
CTETRA      3139       1    1838    1846    1461    1845
CTETRA      3140       1    1838    1461     806    1845
CTETRA      3141       1      93      97    1082     852
CTETRA      3142       1     854    1326     852    1764
CTETRA      3143       1    1326     852    1833    1762
CTETRA      3144       1    1325    1847    1330    1329
CTETRA      3145       1    1326    1762    1327    1448
CTETRA      3146       1    1328    1326    1327    1449
CTETRA      3147       1    1449    1328    1848    1327
CTETRA      3148       1     683    1420     689    1618
CTETRA      3149       1     619    1618     683     689
CTETRA      3150       1    1618    1422     683    1420
CTETRA      3151       1     619     683     282    1012
CTETRA      3152       1     252    1780    1618    1617
CTETRA      3153       1     619    1618     281     683
CTETRA      3154       1    1496    1849    1399    1850
CTETRA      3155       1    1496    1850    1399    1851
CTETRA      3156       1    1472     290    1677     310
CTETRA      3157       1     290    1677     310    1496
CTETRA      3158       1    1113    1496     290    1634
CTETRA      3159       1    1496    1676    1634    1849
CTETRA      3160       1     589    1399    1851    1496
CTETRA      3161       1     288    1634    1496    1676
CTETRA      3162       1     277     145     619     147
CTETRA      3163       1    1055    1234     923     830
CTETRA      3164       1    1852    1853    1854    1855
CTETRA      3165       1    1055    1232    1231    1599
CTETRA      3166       1     576     915     577    1736
CTETRA      3167       1    1355     579     988     566
CTETRA      3168       1    1159    1355    1702    1674
CTETRA      3169       1    1128    1000    1131    1130
CTETRA      3170       1    1765    5196    4900    4899
CTETRA      3171       1    1128    1357    1354    1015
CTETRA      3172       1    1128     579     566     468
CTETRA      3173       1    1159    1733     605    1673
CTETRA      3174       1     399     181     734     579
CTETRA      3175       1    1281    1189    1815    1192
CTETRA      3176       1    1281    1818    1856    1816
CTETRA      3177       1    1751    1147    1819    1815
CTETRA      3178       1     780    1182     779    1189
CTETRA      3179       1    1751    1818    1281    1816
CTETRA      3180       1    1281    1147    1815    1189
CTETRA      3181       1    1128     734     468    1015
CTETRA      3182       1     734     468    1015     466
CTETRA      3183       1     579     915     988     577
CTETRA      3184       1    1354     733     734    1015
CTETRA      3185       1    1146    1189     779    1184
CTETRA      3186       1    1187    1189    1346    1157
CTETRA      3187       1    1189    1346    1157    1147
CTETRA      3188       1    1857     634    6913     636
CTETRA      3189       1    1144    1146     926     927
CTETRA      3190       1    1144    1157    1148    1147
CTETRA      3191       1    1852    1853    1855    1858
CTETRA      3192       1    1147    1189    1346    1815
CTETRA      3193       1    1147    1819    1149     926
CTETRA      3194       1    1751    1819    1147     926
CTETRA      3195       1    1147    1157    1148    1346
CTETRA      3196       1    1207    1859    1208    1209
CTETRA      3197       1    1207    1451     963    1450
CTETRA      3198       1    1207     964     963    1208
CTETRA      3199       1    1450    1209    1860    1861
CTETRA      3200       1    1210    1209    1860    1450
CTETRA      3201       1    1496    1793    1850    1677
CTETRA      3202       1    1862    1007    1863    1864
CTETRA      3203       1     489    1865    1402    1866
CTETRA      3204       1    1867    1868    1869    1870
CTETRA      3205       1    1400     489     600    1056
CTETRA      3206       1     489    1866    1402    1871
CTETRA      3207       1     489    1401    1520    1402
CTETRA      3208       1     854    1083    1872    1082
CTETRA      3209       1      90    1063      96     919
CTETRA      3210       1     840    1081      93    1083
CTETRA      3211       1    1063    1673    1083    1439
CTETRA      3212       1     716    1770     432    1873
CTETRA      3213       1     981    1719    1587     982
CTETRA      3214       1     981     435     432    1772
CTETRA      3215       1     430     435     434     461
CTETRA      3216       1     716     432     981     434
CTETRA      3217       1     434     461     646     420
CTETRA      3218       1     527     439     441     522
CTETRA      3219       1     527     982     526     717
CTETRA      3220       1     222     226      44     334
CTETRA      3221       1     978     287     288    1676
CTETRA      3222       1     209     687     262     480
CTETRA      3223       1     984      44     334     604
CTETRA      3224       1     101     309     781    1025
CTETRA      3225       1      30     333     334     604
CTETRA      3226       1    1846    1408    1411    1682
CTETRA      3227       1    1846    1839    1874    1875
CTETRA      3228       1    1876    1682    1874    1846
CTETRA      3229       1    1877    1876    1682    1874
CTETRA      3230       1    1867    1878    1870    1879
CTETRA      3231       1    1679    1682    1876    1880
CTETRA      3232       1    1219    1220    1881    1882
CTETRA      3233       1    1219    1220    1389    1881
CTETRA      3234       1    1219    1883    1371    1884
CTETRA      3235       1    1219    1220    1882    1217
CTETRA      3236       1     487     498     492     494
CTETRA      3237       1     498     492     660     519
CTETRA      3238       1     525     492     498     519
CTETRA      3239       1     498     499    1321    1645
CTETRA      3240       1     498     494    1520    1885
CTETRA      3241       1     498     494    1885     660
CTETRA      3242       1     978     533    1383     395
CTETRA      3243       1      12     518      73     648
CTETRA      3244       1     115     288      84     289
CTETRA      3245       1     937     389     519     627
CTETRA      3246       1     525    1376     498    1321
CTETRA      3247       1      31     111     978     116
CTETRA      3248       1      73     387     648     183
CTETRA      3249       1     487     491     366     332
CTETRA      3250       1    1886    1887    1888    1889
CTETRA      3251       1     557     564     569     561
CTETRA      3252       1     632     568     569    1890
CTETRA      3253       1     632     568     386     569
CTETRA      3254       1     662    1062     937     422
CTETRA      3255       1     557     569     564    1707
CTETRA      3256       1     662    1125     559    1299
CTETRA      3257       1     632     514     563    1126
CTETRA      3258       1     565     423     579     567
CTETRA      3259       1     229     224     223    1689
CTETRA      3260       1    4841    1891    4854     162
CTETRA      3261       1     206      34     219     222
CTETRA      3262       1    1868    1892    1893    1854
CTETRA      3263       1     226    1270     225     972
CTETRA      3264       1     394     397     224     334
CTETRA      3265       1     223     805    1557    1689
CTETRA      3266       1    1103    1024    1108     773
CTETRA      3267       1    1894    1104    1311    1313
CTETRA      3268       1    1103    1108    1105     248
CTETRA      3269       1     120     448    1024     447
CTETRA      3270       1    1682    1683    1895    1408
CTETRA      3271       1     229    1689    1204    1351
CTETRA      3272       1    1408    1839    1411    1351
CTETRA      3273       1    1408    1874    1839    1351
CTETRA      3274       1    1350     227     225     954
CTETRA      3275       1    1408    1410     954    1683
CTETRA      3276       1    1350    1413     954    1410
CTETRA      3277       1     384     429     426     427
CTETRA      3278       1     385    1062    1041    1297
CTETRA      3279       1     530     490     738    1345
CTETRA      3280       1      29     114     113     366
CTETRA      3281       1      69     383     768     672
CTETRA      3282       1     661     669     643     422
CTETRA      3283       1      23     387      73     183
CTETRA      3284       1     627     518     519     492
CTETRA      3285       1    1627     883     253    1452
CTETRA      3286       1    1886    1893    1867    1896
CTETRA      3287       1     877     879     883    1226
CTETRA      3288       1    1042     505    1226    1269
CTETRA      3289       1    1042    1269    1226    1452
CTETRA      3290       1     957    1203    1452    1627
CTETRA      3291       1    1044     883    1452    1042
CTETRA      3292       1    1129    1698    1701     774
CTETRA      3293       1     900     411     908     543
CTETRA      3294       1     774    1357    1034    1699
CTETRA      3295       1    1356    1015    1357    1034
CTETRA      3296       1    1015    1357    1034    1129
CTETRA      3297       1    1128    1129    1000    1130
CTETRA      3298       1    1129    1015    1000    1034
CTETRA      3299       1     288     291     290    1113
CTETRA      3300       1     311    1027     288     310
CTETRA      3301       1     289     288     290     293
CTETRA      3302       1     285     470    1318      66
CTETRA      3303       1    1897    1772    1898    1790
CTETRA      3304       1    1898    1897    1790    1300
CTETRA      3305       1    1246    1897    1898    1300
CTETRA      3306       1    1897    1899    1783    1900
CTETRA      3307       1    1095    1900    1901    1897
CTETRA      3308       1    1897    1772    1784    1783
CTETRA      3309       1    1902    1903    1904    1749
CTETRA      3310       1     182      28     578     399
CTETRA      3311       1      12     648     387     389
CTETRA      3312       1    1312     387     183     899
CTETRA      3313       1     182     577     578     575
CTETRA      3314       1     650     386     568     387
CTETRA      3315       1    1905    1906    1395    1907
CTETRA      3316       1     394     804     397     533
CTETRA      3317       1     533     802     397     531
CTETRA      3318       1     804     397     533     802
CTETRA      3319       1     803    1566     802     531
CTETRA      3320       1    1572    1566    1345     802
CTETRA      3321       1    1574     802    1880     806
CTETRA      3322       1     802    1574    1566     806
CTETRA      3323       1     804     223     224     805
CTETRA      3324       1    1458     802    1461    1880
CTETRA      3325       1     802     397     531    1345
CTETRA      3326       1     533     802     803     804
CTETRA      3327       1     488     397     600    1056
CTETRA      3328       1     224    1270     334     599
CTETRA      3329       1     533     804     805     223
CTETRA      3330       1    1908    4688    4686    4290
CTETRA      3331       1     334     332     600     333
CTETRA      3332       1     487     488     491     332
CTETRA      3333       1     559    1062    1041     558
CTETRA      3334       1     489    1802    1056    1865
CTETRA      3335       1     397     334     332     600
CTETRA      3336       1    1393    1395    1905    1909
CTETRA      3337       1     203     480     479     484
CTETRA      3338       1     398       3      11       9
CTETRA      3339       1     332     488     491     365
CTETRA      3340       1      10     382     768     669
CTETRA      3341       1    1907    6061    1395    1407
CTETRA      3342       1     984    1270    1681    1471
CTETRA      3343       1    1458     224     599    1270
CTETRA      3344       1     237     245     236     239
CTETRA      3345       1    1697     984     972    1270
CTETRA      3346       1     224     397     599     334
CTETRA      3347       1     203     458     479     481
CTETRA      3348       1     601      43     497     871
CTETRA      3349       1    1458     599    1460    1270
CTETRA      3350       1     333     604    1471     334
CTETRA      3351       1     220     205     227     757
CTETRA      3352       1     687     220     210     760
CTETRA      3353       1     484     759     757     687
CTETRA      3354       1    1407    1394    6062    6061
CTETRA      3355       1     395      34     223     543
CTETRA      3356       1     984     334    1270    1471
CTETRA      3357       1    1315     850     285     848
CTETRA      3358       1    1317    1910    1703    1479
CTETRA      3359       1     311     309     310     157
CTETRA      3360       1     469    1317     470     380
CTETRA      3361       1     157     316     151     315
CTETRA      3362       1     173     467     916     470
CTETRA      3363       1      67     470     380       9
CTETRA      3364       1     916    1658     467     736
CTETRA      3365       1     224    1270    1461    1411
CTETRA      3366       1    1557    1911    1121     313
CTETRA      3367       1    1843    1689    1911     805
CTETRA      3368       1    1689    1911     805    1557
CTETRA      3369       1     223    1557     533    1121
CTETRA      3370       1    1911    1121    1383    1557
CTETRA      3371       1    1912    1913    1407    1914
CTETRA      3372       1    1557    1383    1911    1556
CTETRA      3373       1     803    1383    1557    1556
CTETRA      3374       1     533    1121    1557    1383
CTETRA      3375       1    1257     484    1821    1258
CTETRA      3376       1     484     757    1257    1820
CTETRA      3377       1    1913    1407    5986    1907
CTETRA      3378       1     757    1822    1820     972
CTETRA      3379       1    1257     757     759    1822
CTETRA      3380       1     759     480     484    1257
CTETRA      3381       1     484    1667     834    1271
CTETRA      3382       1     480     758    1127     759
CTETRA      3383       1     321     958     587     861
CTETRA      3384       1     250     252     987    1617
CTETRA      3385       1     588      93     854     852
CTETRA      3386       1      17     587     743     861
CTETRA      3387       1      97      96    1082    1489
CTETRA      3388       1     614     679     730    1169
CTETRA      3389       1     987     238     239     243
CTETRA      3390       1     914    1485    1780    1915
CTETRA      3391       1    1916     913    1915    1485
CTETRA      3392       1    1407    6062    1394    1917
CTETRA      3393       1     141     410     421     821
CTETRA      3394       1     454     548     459     461
CTETRA      3395       1     646     647     461     714
CTETRA      3396       1     328     492     525     519
CTETRA      3397       1     872     717    1405    1719
CTETRA      3398       1     332      43     333      30
CTETRA      3399       1     520     517     525     519
CTETRA      3400       1     872     602     860    1645
CTETRA      3401       1      21     448     447     180
CTETRA      3402       1      91      65     605      90
CTETRA      3403       1     694    1285     733     732
CTETRA      3404       1    1420    1909    1905    1918
CTETRA      3405       1     787     965     697    1208
CTETRA      3406       1     182     578      27     575
CTETRA      3407       1    1128     734    1355     579
CTETRA      3408       1     399     579     734     468
CTETRA      3409       1     181     915    1159    1355
CTETRA      3410       1    1753     466    1295    1076
CTETRA      3411       1    1753     466     736     733
CTETRA      3412       1     174     734     181     735
CTETRA      3413       1     467     468     469     398
CTETRA      3414       1     576     180    1159    1733
CTETRA      3415       1     919     201    1740    1518
CTETRA      3416       1     409     781     594     780
CTETRA      3417       1     120    1024     448     773
CTETRA      3418       1    1919    1394    1917    1406
CTETRA      3419       1     343     346     345     347
CTETRA      3420       1     350     444     582     344
CTETRA      3421       1     445    1603    1920    1334
CTETRA      3422       1     344     678     682     677
CTETRA      3423       1     445    1603     362     349
CTETRA      3424       1     446     362     445    1334
CTETRA      3425       1    1612    1615     677     651
CTETRA      3426       1    1612    1921     677    1615
CTETRA      3427       1     919    1202    1518    1671
CTETRA      3428       1     428     570     566     876
CTETRA      3429       1     181     179    1159     180
CTETRA      3430       1     821     820    1306     823
CTETRA      3431       1     620    1419     708    1507
CTETRA      3432       1     144      16     142      18
CTETRA      3433       1     118     410      56     121
CTETRA      3434       1     376     481     676     808
CTETRA      3435       1    1922     606    1923    1657
CTETRA      3436       1     870    1922     193     355
CTETRA      3437       1     807    1019     675    1048
CTETRA      3438       1     807     238     282    1012
CTETRA      3439       1      42      40      29     184
CTETRA      3440       1     360    1580     351     753
CTETRA      3441       1     789     788     842     843
CTETRA      3442       1     343     359     351     347
CTETRA      3443       1     396     531      81     116
CTETRA      3444       1     763     648     764     899
CTETRA      3445       1     721     449    1177     450
CTETRA      3446       1     517     763     327     184
CTETRA      3447       1    1688     571    1924     526
CTETRA      3448       1     525    1321     717    1405
CTETRA      3449       1     525    1321     497     717
CTETRA      3450       1    1122    1588    1123    1376
CTETRA      3451       1    1122    1588    1124    1123
CTETRA      3452       1    1518    1740    1286     828
CTETRA      3453       1    1518    1286    1740    1925
CTETRA      3454       1     732     201    1740     735
CTETRA      3455       1     870    1922     355     771
CTETRA      3456       1     694     829     827     733
CTETRA      3457       1    1382    1674    1673    1439
CTETRA      3458       1    1672     919    1382    1740
CTETRA      3459       1     747     268     753    1026
CTETRA      3460       1     221    1204     542     537
CTETRA      3461       1     900     274     504     536
CTETRA      3462       1    1204    1689     585     583
CTETRA      3463       1     219     221     220     227
CTETRA      3464       1    1249     505     536    1042
CTETRA      3465       1     458     323     647     420
CTETRA      3466       1     264     503     536     504
CTETRA      3467       1     760     761    1824    1096
CTETRA      3468       1     804     805     224    1461
CTETRA      3469       1     757     972     954     762
CTETRA      3470       1     225    1270     224    1411
CTETRA      3471       1     687     759     756     758
CTETRA      3472       1     319     618     616    1303
CTETRA      3473       1     282     683     279     686
CTETRA      3474       1     588      93      18     863
CTETRA      3475       1     863    1024     616    1629
CTETRA      3476       1     319     853    1303     320
CTETRA      3477       1     615     914     913    1485
CTETRA      3478       1     302     165     267     167
CTETRA      3479       1     862     853    1303     319
CTETRA      3480       1     122     773     674    1024
CTETRA      3481       1     674     936     616     773
CTETRA      3482       1    1159    1673     605    1063
CTETRA      3483       1    1083    1441    1082      95
CTETRA      3484       1    1083      95    1439    1441
CTETRA      3485       1    1082      97      93      95
CTETRA      3486       1    1441      95    1834    1082
CTETRA      3487       1    1922     606    1657    1926
CTETRA      3488       1    1489    1441    1834    1082
CTETRA      3489       1    1927    1489    1441    1834
CTETRA      3490       1    1764    1082    1489     852
CTETRA      3491       1     852    1082    1489      97
CTETRA      3492       1     729    1928    1256     925
CTETRA      3493       1     925     727     729    1928
CTETRA      3494       1     727     731    1134    1928
CTETRA      3495       1     728     727     925     731
CTETRA      3496       1    1738     510    1134     727
CTETRA      3497       1     408     360     781     347
CTETRA      3498       1    1922    1923    1929     356
CTETRA      3499       1     346     729     581     682
CTETRA      3500       1     981     432    1770    1772
CTETRA      3501       1     432    1873    1898     440
CTETRA      3502       1     432    1772     435    1790
CTETRA      3503       1    1898     431    1790     432
CTETRA      3504       1     430     440     432     431
CTETRA      3505       1    1922     355     771    1926
CTETRA      3506       1     957     882     760    1069
CTETRA      3507       1     957    1627     883    1069
CTETRA      3508       1    1930    1931    1932    1933
CTETRA      3509       1    1043    1046    1706     841
CTETRA      3510       1    1042     505    1269    1249
CTETRA      3511       1     924    1527    1532    1528
CTETRA      3512       1    1527    1934    1935    1239
CTETRA      3513       1     960     924    1527     731
CTETRA      3514       1    1527    1934    1532    1528
CTETRA      3515       1    1936    1937    1938    1239
CTETRA      3516       1     280    1417     278    1595
CTETRA      3517       1    1017    1055     838    1599
CTETRA      3518       1    1234     923     830    1746
CTETRA      3519       1    1232    1231    1386    1233
CTETRA      3520       1     820     823     830    1306
CTETRA      3521       1    1599    1055     922    1017
CTETRA      3522       1    1234     823    1306     830
CTETRA      3523       1     323     646     324     871
CTETRA      3524       1     648     517     518     184
CTETRA      3525       1     157     309     101     311
CTETRA      3526       1     653     782     961     927
CTETRA      3527       1      21     119     180     447
CTETRA      3528       1     360    1026     781    1272
CTETRA      3529       1     233     919      60     179
CTETRA      3530       1     516     727     510     730
CTETRA      3531       1      62     409     408     235
CTETRA      3532       1     694     736     733     827
CTETRA      3533       1     277     281     587     958
CTETRA      3534       1     252     281    1618    1485
CTETRA      3535       1     619     252     587     281
CTETRA      3536       1     361     789     446     790
CTETRA      3537       1    1324     358     269     362
CTETRA      3538       1     265     266     268     267
CTETRA      3539       1    1939    1283    1940    1941
CTETRA      3540       1     620    1425     281    1424
CTETRA      3541       1     853    1303     320    1447
CTETRA      3542       1    1618    1942    1421    1780
CTETRA      3543       1     281    1422    1425     683
CTETRA      3544       1     281    1424    1425    1942
CTETRA      3545       1     282     686     279    1011
CTETRA      3546       1     619     987     689    1012
CTETRA      3547       1     587     958     281    1485
CTETRA      3548       1     345     778    1256    1751
CTETRA      3549       1     345     348     778    1751
CTETRA      3550       1     345     347     778     348
CTETRA      3551       1     358     349     351     362
CTETRA      3552       1     351     349     359     343
CTETRA      3553       1    1240    1706    1046     842
CTETRA      3554       1    1932    1943    1944    1945
CTETRA      3555       1     842     789    1831     841
CTETRA      3556       1     841    1831     842    1706
CTETRA      3557       1     258    1043    1098     756
CTETRA      3558       1     363    1043     364     505
CTETRA      3559       1     788     986    1946    1358
CTETRA      3560       1    1063      95      96    1671
CTETRA      3561       1     789     362     446     844
CTETRA      3562       1     115      71     148     285
CTETRA      3563       1      82      83      78     390
CTETRA      3564       1      77     737      81     391
CTETRA      3565       1     291    1219      83    1217
CTETRA      3566       1      77     797      80      79
CTETRA      3567       1    1947    1948    1949    1940
CTETRA      3568       1    1219    1218      83    1371
CTETRA      3569       1    1884    1862      83     390
CTETRA      3570       1      83      79    1862    1884
CTETRA      3571       1     450    1177     821    1138
CTETRA      3572       1     430     825     431     433
CTETRA      3573       1     871     324     717     835
CTETRA      3574       1     120     449     450     773
CTETRA      3575       1      88     507     516     511
CTETRA      3576       1     693     197     695     782
CTETRA      3577       1     101     781    1026    1025
CTETRA      3578       1    1950    1951    1952    1953
CTETRA      3579       1     267     167     263     270
CTETRA      3580       1     394     804     533     223
CTETRA      3581       1     421     459     442     420
CTETRA      3582       1     782     697     693     698
CTETRA      3583       1     696    1165     695     827
CTETRA      3584       1     697    1954    1211    1208
CTETRA      3585       1    1206     697     787    1145
CTETRA      3586       1     828    1202     201     654
CTETRA      3587       1     693     698     654     782
CTETRA      3588       1     850     965     963     964
CTETRA      3589       1    1832    1266    1265    1955
CTETRA      3590       1    1832    1363    1227    1955
CTETRA      3591       1    1832    1265    1266    1264
CTETRA      3592       1    1956    1957    1958    1959
CTETRA      3593       1     845    1264    1265    1832
CTETRA      3594       1     844    1363    1227    1832
CTETRA      3595       1     844    1832     845    1265
CTETRA      3596       1     549     551    1791     552
CTETRA      3597       1     546    1960    1961     544
CTETRA      3598       1     546    1960     453    1962
CTETRA      3599       1     546    1961     551     544
CTETRA      3600       1     546    1231    1962     453
CTETRA      3601       1     546    1385    1231    1386
CTETRA      3602       1     462     546    1386     551
CTETRA      3603       1    1599    1582    1962    1231
CTETRA      3604       1    1599    1011    1018    1017
CTETRA      3605       1     421     825     823     824
CTETRA      3606       1     670    1963     673     672
CTETRA      3607       1     670    1835     797    1964
CTETRA      3608       1     673    1802     670     490
CTETRA      3609       1     738    1345    1802    1571
CTETRA      3610       1     549     433    1791    1101
CTETRA      3611       1     548     432    1790     433
CTETRA      3612       1     430     438     825     824
CTETRA      3613       1    1512    1965    1966    1514
CTETRA      3614       1     548     825     430     433
CTETRA      3615       1     462    1386     546    1231
CTETRA      3616       1     430     716     440     439
CTETRA      3617       1     430     433     432     548
CTETRA      3618       1     482     140     457     376
CTETRA      3619       1    1073    1036    1967    1456
CTETRA      3620       1    1073    1375    1430    1455
CTETRA      3621       1    1966    1950    1512    1968
CTETRA      3622       1    1070    1073    1036    1380
CTETRA      3623       1    1073    1967    1023    1969
CTETRA      3624       1     327     324     420     442
CTETRA      3625       1     763    1175     720     721
CTETRA      3626       1     487     366     492     497
CTETRA      3627       1     243     788    1046     364
CTETRA      3628       1     987    1970     986    1358
CTETRA      3629       1     270     271     237     475
CTETRA      3630       1     481     457     464    1564
CTETRA      3631       1     834     836     483     983
CTETRA      3632       1     884     890     886     888
CTETRA      3633       1     363    1324    1363    1265
CTETRA      3634       1    1512    1971    1514    1972
CTETRA      3635       1    1973    1974     865    1975
CTETRA      3636       1    1975    1974     865    1299
CTETRA      3637       1    1974     866     750     749
CTETRA      3638       1     750    1976    1975    1974
CTETRA      3639       1    1974     750    1976    1977
CTETRA      3640       1     363    1265     506    1324
CTETRA      3641       1     343     350     344     444
CTETRA      3642       1     269    1324     500     358
CTETRA      3643       1     269     268     351     753
CTETRA      3644       1    1978    1979    1980    1981
CTETRA      3645       1     361     789     362     446
CTETRA      3646       1    1846    1270    1411    1461
CTETRA      3647       1    1839    1351    1841    1689
CTETRA      3648       1    1839    1982    1351    1874
CTETRA      3649       1    1839    1351    1982    1841
CTETRA      3650       1    1838    1839    1875    1840
CTETRA      3651       1    1983    1470    1984    1469
CTETRA      3652       1    1983    1468    1469    1985
CTETRA      3653       1    1983    1464    1754    1501
CTETRA      3654       1    1983    1986    1470    1468
CTETRA      3655       1    1983    1987    1464    1986
CTETRA      3656       1    1983    1985    1988    1987
CTETRA      3657       1     484    1820     972     757
CTETRA      3658       1     885    1365     896     894
CTETRA      3659       1    6788    4975    4974    6861
CTETRA      3660       1     761     757    1823     759
CTETRA      3661       1     756    1096    1365     894
CTETRA      3662       1     756     761     893     759
CTETRA      3663       1     879    1226    1264    1269
CTETRA      3664       1    1086    5347    5348    5335
CTETRA      3665       1    1989    1990    5171    5173
CTETRA      3666       1    1991    5191    5195    5156
CTETRA      3667       1     253    1452     255     254
CTETRA      3668       1     879    1264    1992    1993
CTETRA      3669       1     879     255     256    1994
CTETRA      3670       1     978     395     908     109
CTETRA      3671       1    1995    5378    6915    6914
CTETRA      3672       1    1315    1319     964     848
CTETRA      3673       1     113     367     365     366
CTETRA      3674       1     391      80     797     672
CTETRA      3675       1    1996    1997    1998    1999
CTETRA      3676       1    2000    6719    6794    6795
CTETRA      3677       1    1827    1862     390      78
CTETRA      3678       1     342    4800    4788    6935
CTETRA      3679       1      67       9     380     379
CTETRA      3680       1     470    1318      66     380
CTETRA      3681       1      29     366     365      43
CTETRA      3682       1    1429    1427    1428    1439
CTETRA      3683       1    1302    5232    5238    5239
CTETRA      3684       1    1745    4807    4819    4820
CTETRA      3685       1    4508    4520    2001    4509
CTETRA      3686       1    2002    6848    4251    6849
CTETRA      3687       1     576    1159     915    1702
CTETRA      3688       1    6839    6815    4231    6838
CTETRA      3689       1     915    1701     577    1736
CTETRA      3690       1    2003    4487    4481    4488
CTETRA      3691       1    1159     735    1355    1674
CTETRA      3692       1    2004    5049    5054    5044
CTETRA      3693       1     904     948     905     949
CTETRA      3694       1    1130    1129    1698    1701
CTETRA      3695       1    6295    2005    6220    6296
CTETRA      3696       1    1128    1355    1354    1357
CTETRA      3697       1     566    1355    1701     988
CTETRA      3698       1    1702     915    1701    1355
CTETRA      3699       1     735    1700    1740    1287
CTETRA      3700       1    5052    5043    1998    1515
CTETRA      3701       1    2006    6003    6004    5928
CTETRA      3702       1    1382    1700    1672    1740
CTETRA      3703       1     782    1145     698     927
CTETRA      3704       1    2007    2008    2009    2010
CTETRA      3705       1     919    1671    1518    1672
CTETRA      3706       1    2011    4453    4442    4447
CTETRA      3707       1    2012    2013     906    2014
CTETRA      3708       1    1623    2015    2016    2017
CTETRA      3709       1    1085    5358    5346    5345
CTETRA      3710       1    5483    2018    5484    5559
CTETRA      3711       1     732     735    1740    1287
CTETRA      3712       1    5399    4330    6962    4344
CTETRA      3713       1     174      63     694      60
CTETRA      3714       1    1354     732     733    1294
CTETRA      3715       1     182     578      28      27
CTETRA      3716       1    2019    4828    1490    4827
CTETRA      3717       1    2020    5743    5819    5744
CTETRA      3718       1     414    4356    4347    4355
CTETRA      3719       1    1355     735    1357    1674
CTETRA      3720       1    5419    6981    6982    4304
CTETRA      3721       1     576    1736    1702     915
CTETRA      3722       1     385      10     422     382
CTETRA      3723       1     427     426    1558    1380
CTETRA      3724       1     633     425    1558     427
CTETRA      3725       1    2021    4637    2022    2023
CTETRA      3726       1     566    2024     988    1701
CTETRA      3727       1    2025    4659    2026     911
CTETRA      3728       1    2027    4618    4612    4616
CTETRA      3729       1    2028     355     947    2029
CTETRA      3730       1    2030    5822    5897    5898
CTETRA      3731       1     874     876    2031     570
CTETRA      3732       1     566     570    2024    2031
CTETRA      3733       1    2032    2033    4576    2034
CTETRA      3734       1     287    1218    1634    1114
CTETRA      3735       1    4590    2035    4540    2036
CTETRA      3736       1    2019     162    4839    1490
CTETRA      3737       1    2037    4502    4507    4508
CTETRA      3738       1    1391     531     287     737
CTETRA      3739       1    2038    4519    4507    4518
CTETRA      3740       1    2039    2040    2041    2042
CTETRA      3741       1    1113     288    1634     290
CTETRA      3742       1     803    1391     531     287
CTETRA      3743       1    2043     940     967    2044
CTETRA      3744       1    2045    5786    5787    5711
CTETRA      3745       1    2046    4454    2047    1797
CTETRA      3746       1       4     151     157     152
CTETRA      3747       1     963     849    1373     286
CTETRA      3748       1     634    5353    5366    5354
CTETRA      3749       1    1207    1450    1210    1190
CTETRA      3750       1    2048    4417    4316    4416
CTETRA      3751       1    1206     787    1146    1145
CTETRA      3752       1     315     963     965    1208
CTETRA      3753       1     315     963    1183    1451
CTETRA      3754       1     904     948     949     947
CTETRA      3755       1    2049    5825    5824    5900
CTETRA      3756       1    2050    4959    4958    4972
CTETRA      3757       1     963    1207    1861     964
CTETRA      3758       1    2051    4486    4474    4475
CTETRA      3759       1    2052    4471    2053    4543
CTETRA      3760       1    2054    2055    1438    1700
CTETRA      3761       1    2056    4544    4654    4639
CTETRA      3762       1    2054    1438    2057    1434
CTETRA      3763       1    2058    5774    5698    5773
CTETRA      3764       1    5415    6978    4381    6977
CTETRA      3765       1    2054     775    1699    1700
CTETRA      3766       1    2059    4888    7035    7036
CTETRA      3767       1     946     355    2060     947
CTETRA      3768       1     605     840    1083    1381
CTETRA      3769       1    2061    4411    4421    4425
CTETRA      3770       1    2062    2063    4345    5409
CTETRA      3771       1    2064    2065    5698    5697
CTETRA      3772       1    2000    6644    6719    6720
CTETRA      3773       1    2066    6648    6723    6724
CTETRA      3774       1    1063    1437      95    1671
CTETRA      3775       1    1083    2067    1872    1439
CTETRA      3776       1     780     778     347     348
CTETRA      3777       1     587    1137     861     958
CTETRA      3778       1    2068    2069    5201    2070
CTETRA      3779       1     317     616    1746     161
CTETRA      3780       1    2071    6271    2072    6270
CTETRA      3781       1     439    1222    1873     440
CTETRA      3782       1     720     439    1225    1725
CTETRA      3783       1     439    2073    1225    1725
CTETRA      3784       1    2074    4431    4324    4323
CTETRA      3785       1     438    2073     439    1222
CTETRA      3786       1     867     946    2013     904
CTETRA      3787       1     716     439    1873     440
CTETRA      3788       1     113     367     114     112
CTETRA      3789       1     965     963     964    1208
CTETRA      3790       1     105    5555    5556    5480
CTETRA      3791       1    5757    2075    5756    5681
CTETRA      3792       1    2076    4363    4362    4366
CTETRA      3793       1       4     151     150     108
CTETRA      3794       1     257     211     272     259
CTETRA      3795       1    5386    7056    7057    4876
CTETRA      3796       1     118     120      21     449
CTETRA      3797       1     299     401    4767    2077
CTETRA      3798       1      74     383     626     669
CTETRA      3799       1     648     183     387     899
CTETRA      3800       1     626     383     491     864
CTETRA      3801       1    2078    2034    2079    2080
CTETRA      3802       1    2078    2081    2082    2032
CTETRA      3803       1    2078    2081    2032    2080
CTETRA      3804       1    2083    4629    2084    4630
CTETRA      3805       1    2085    5828    2086    2087
CTETRA      3806       1    1113    1496    1634    1399
CTETRA      3807       1      67       3       9      10
CTETRA      3808       1      77      81     737      84
CTETRA      3809       1    2088    6321    6245    6320
CTETRA      3810       1     289     288     291     290
CTETRA      3811       1    1109    1113    1221    1218
CTETRA      3812       1    2089    2090     904    2091
CTETRA      3813       1    2092    4219    4220    4225
CTETRA      3814       1    1908    4686    4685    4289
CTETRA      3815       1    2093    4368    1800    4382
CTETRA      3816       1     304    1586    1584     306
CTETRA      3817       1    2094    2095    2096    2097
CTETRA      3818       1    2098    4427    4322    4321
CTETRA      3819       1    2099      94    2100    2101
CTETRA      3820       1    2102    4362    4365    4366
CTETRA      3821       1    1109    1221    1219    1218
CTETRA      3822       1    1114     803    1383     287
CTETRA      3823       1    1113    1218    1114    1634
CTETRA      3824       1    2103    2104    5427    5502
CTETRA      3825       1    1218    1391    1371    1442
CTETRA      3826       1    2105    4264    4256    4263
CTETRA      3827       1    1109    1219    1389    1442
CTETRA      3828       1     737     531    1370    1391
CTETRA      3829       1    2106    4274    4266    4273
CTETRA      3830       1     532    4713    4714    4712
CTETRA      3831       1    2107    4278    4276    4277
CTETRA      3832       1    1370     737    1391    1371
CTETRA      3833       1    5443    5519    2108    5444
CTETRA      3834       1    1730    2109    2110    2111
CTETRA      3835       1    4628    2112    4627    4631
CTETRA      3836       1     520     650     389    1126
CTETRA      3837       1     383     672     864     768
CTETRA      3838       1    1377    1405    1376    1588
CTETRA      3839       1    6768    5109    6880    6881
CTETRA      3840       1     324     497     871     717
CTETRA      3841       1     116     533     287     978
CTETRA      3842       1    1028    1444    1443    2113
CTETRA      3843       1    2114    2115    2116    2117
CTETRA      3844       1    2118    2119    2120    2121
CTETRA      3845       1    2122     864     769     767
CTETRA      3846       1    2123    6005    6006    5930
CTETRA      3847       1    4745    2124    2125    2126
CTETRA      3848       1    2127    4382    4380    4381
CTETRA      3849       1     872    1405     717    1321
CTETRA      3850       1    2128    5782    5707    5706
CTETRA      3851       1    2129    2130    5273    2131
CTETRA      3852       1    1811    2132    1243    1543
CTETRA      3853       1    1811    2133     175    2134
CTETRA      3854       1    2135    2136    1881    2137
CTETRA      3855       1     822    2138    2139    6010
CTETRA      3856       1    1811    1543     275    2140
CTETRA      3857       1     783    2141     786    2142
CTETRA      3858       1    1811    1243    2134    1793
CTETRA      3859       1    2143    6117    6193    6118
CTETRA      3860       1    2044    5129    5115    5121
CTETRA      3861       1    2144    6826    4259    4217
CTETRA      3862       1    1793     275    1543     273
CTETRA      3863       1     569    2145    1890     568
CTETRA      3864       1    2146    5186    5179    5185
CTETRA      3865       1     569     564    1707    2147
CTETRA      3866       1     569    2145     988    2147
CTETRA      3867       1     561     565     570     569
CTETRA      3868       1    6774    6875    5077    5079
CTETRA      3869       1     565     577     579     988
CTETRA      3870       1    2148    5447    5523    5448
CTETRA      3871       1    2149    4741    4692    4691
CTETRA      3872       1     424     388     558     425
CTETRA      3873       1     565     424     567     569
CTETRA      3874       1    1477    5242    5238    5241
CTETRA      3875       1     333     599     334    1471
CTETRA      3876       1     748     907     411     110
CTETRA      3877       1     984     604     334    1471
CTETRA      3878       1    2150    4432    4450    4433
CTETRA      3879       1      31     978     395     533
CTETRA      3880       1    2151    2152    6001    5926
CTETRA      3881       1    6756    5260    5262    6893
CTETRA      3882       1    6522    1685    2153    6521
CTETRA      3883       1    2154    5124    5125    5110
CTETRA      3884       1    1458    1880    1270    1460
CTETRA      3885       1     599     600    2155     603
CTETRA      3886       1    2156     474    2157    2158
CTETRA      3887       1    2159    2160     659     989
CTETRA      3888       1     599    1681    1471     603
CTETRA      3889       1     599    1270    1471    1681
CTETRA      3890       1    1373    2161     847     849
CTETRA      3891       1    1373    1860    1450    1716
CTETRA      3892       1    2162    5240    5242    5211
CTETRA      3893       1    2008    4623    4622    4624
CTETRA      3894       1    2163    4635    4606    4634
CTETRA      3895       1    1462     870     921    2164
CTETRA      3896       1    2165    2166    4453    4451
CTETRA      3897       1    1373    1861    1860    2167
CTETRA      3898       1    1373    1716    1374    2161
CTETRA      3899       1    2168    4423    4427    4426
CTETRA      3900       1    1820     757    1257    1822
CTETRA      3901       1    2169    5705    5629    5704
CTETRA      3902       1    4357    2062    4361    1057
CTETRA      3903       1    1408    2170    1874    1410
CTETRA      3904       1    1408    1683    1895    1410
CTETRA      3905       1     954     955    1803    1413
CTETRA      3906       1    2171    2172    5474    5473
CTETRA      3907       1     220     954     956     762
CTETRA      3908       1     205     227     757     972
CTETRA      3909       1     149     240    4948    4949
CTETRA      3910       1    2173    5784    5785    5709
CTETRA      3911       1    1331    5533    5609    5534
CTETRA      3912       1     954     762    1803     956
CTETRA      3913       1     937    1126     389     563
CTETRA      3914       1    1398    1443    2174    2175
CTETRA      3915       1    2176    6562    6486    6561
CTETRA      3916       1    2177    5665    5666    5590
CTETRA      3917       1     648     899     650     764
CTETRA      3918       1     385     388    1062     422
CTETRA      3919       1    5736    2178    5811    2179
CTETRA      3920       1    2050    4946    4957    4958
CTETRA      3921       1       1      13      12      73
CTETRA      3922       1     397     224     804     394
CTETRA      3923       1     671     530     491     490
CTETRA      3924       1     203     323     483     479
CTETRA      3925       1    4306    4478    2180    4480
CTETRA      3926       1    2029    2091    2181     353
CTETRA      3927       1     671     383     672     864
CTETRA      3928       1    1569    2182    1567    2183
CTETRA      3929       1     864     769     768     672
CTETRA      3930       1    1552    5375    5362    5374
CTETRA      3931       1    2184    5476    5477    5401
CTETRA      3932       1    2185    4412    4291    4418
CTETRA      3933       1     767     864    2186    2122
CTETRA      3934       1     864     673    1871    2186
CTETRA      3935       1     864     673     490    1871
CTETRA      3936       1     743     913    1135    1486
CTETRA      3937       1    5598    2187    5599    5674
CTETRA      3938       1     853    1326     854    1449
CTETRA      3939       1    1833     852     861    1762
CTETRA      3940       1    1083    1872    2067    1081
CTETRA      3941       1    2188    5291    5292    5277
CTETRA      3942       1    2189    4919    4952    4918
CTETRA      3943       1    6794    6837    4269    6836
CTETRA      3944       1      96    1834    1082    1489
CTETRA      3945       1    2190    5206    5142    5207
CTETRA      3946       1     588     862     853     854
CTETRA      3947       1     854    1764    1082    1872
CTETRA      3948       1    5740    2191    2192    5815
CTETRA      3949       1     840     447    1024    1381
CTETRA      3950       1      67       3     470       9
CTETRA      3951       1    2193     456    2194    2195
CTETRA      3952       1      66     997     796    1318
CTETRA      3953       1    2196    4626    4633    4625
CTETRA      3954       1    6683    6759    2197     540
CTETRA      3955       1    2198    4391    4390    4393
CTETRA      3956       1    2199    2152    5999    6000
CTETRA      3957       1    2200    2152    5850    5849
CTETRA      3958       1    2201    4396    4397    4372
CTETRA      3959       1    1901    5229    5230    5233
CTETRA      3960       1    2202    4458    4444    4443
CTETRA      3961       1    2203    2204    2205    2206
CTETRA      3962       1    2207    5674    5598    5673
CTETRA      3963       1      82     285     997      66
CTETRA      3964       1    1389    1443    1388    2208
CTETRA      3965       1    1561    4927    4928    4938
CTETRA      3966       1    1389    2209    1881    2208
CTETRA      3967       1    2210    4621    4622    4619
CTETRA      3968       1     538     541    6685    6686
CTETRA      3969       1    2211    4524    4520    4519
CTETRA      3970       1    1728    2212    5312    2213
CTETRA      3971       1    5406    6968    6969    4366
CTETRA      3972       1     848     390     997    2214
CTETRA      3973       1    2215    2216    4548    4569
CTETRA      3974       1      82      68      66      85
CTETRA      3975       1     173     916     736     695
CTETRA      3976       1     540    6684    6608    6683
CTETRA      3977       1    2217    4551    4467    4550
CTETRA      3978       1    2218    4580    4551    4586
CTETRA      3979       1     744    4926    2219    6854
CTETRA      3980       1    2220    1198    1663    1650
CTETRA      3981       1    1388    2209    2221    2222
CTETRA      3982       1    6792    4945    7066    6857
CTETRA      3983       1    1487    6300    2223    2224
CTETRA      3984       1     523     524     172    2225
CTETRA      3985       1     793     795    2226    4303
CTETRA      3986       1    1198    1201    2227    1668
CTETRA      3987       1     465    1198    1259     451
CTETRA      3988       1    1293    5195    5192    5193
CTETRA      3989       1    5251     688     595    5249
CTETRA      3990       1     726    6312    2228    6387
CTETRA      3991       1    1199    1198    1259     465
CTETRA      3992       1    1198     451    1650    1259
CTETRA      3993       1     774     776     775    1699
CTETRA      3994       1     775    2229    2230    2231
CTETRA      3995       1    2232    2233    2234    2235
CTETRA      3996       1    2236    2150    2237    2238
CTETRA      3997       1     775    1732    1674    1428
CTETRA      3998       1    1732    1673    1734    1702
CTETRA      3999       1     774    1702    1737    1701
CTETRA      4000       1    2239    2240    2241    5017
CTETRA      4001       1     775    2231    1699     776
CTETRA      4002       1    2242    2243    2072    2244
CTETRA      4003       1     427     633     876    1071
CTETRA      4004       1     637    2197    6758    6759
CTETRA      4005       1     680    1726    2245    5259
CTETRA      4006       1     429    1070     469    1036
CTETRA      4007       1    2246    5967    6043    5968
CTETRA      4008       1     558     559    2247    1041
CTETRA      4009       1     540    6608    6684    6609
CTETRA      4010       1    1050    4905    5073    5090
CTETRA      4011       1    1293    5195    5193    5197
CTETRA      4012       1    2204    4456    4288    4287
CTETRA      4013       1    2248    5135    5134    5131
CTETRA      4014       1     578     567     577     579
CTETRA      4015       1      10     381     379     382
CTETRA      4016       1    2249    4435    4433    4437
CTETRA      4017       1    2011    4442    4453    4441
CTETRA      4018       1    1115    1110    1388    2175
CTETRA      4019       1    1312     387     650     568
CTETRA      4020       1    2250    6378    6303    6302
CTETRA      4021       1     299    2077    4767    4770
CTETRA      4022       1     297    4749    4748    4769
CTETRA      4023       1    1458     397    1459     599
CTETRA      4024       1    1577    6484    6560    6485
CTETRA      4025       1    1458     397     224     804
CTETRA      4026       1    5684    5609     649    5608
CTETRA      4027       1     483     484     834    1271
CTETRA      4028       1       6    4971    4968    4969
CTETRA      4029       1     737    1391    1371    1218
CTETRA      4030       1     737     738     391     797
CTETRA      4031       1     562     868     558    1724
CTETRA      4032       1    2251    2252    2097    2253
CTETRA      4033       1     937    1125     559     662
CTETRA      4034       1    2254    2255    2256    5176
CTETRA      4035       1    1041     559    2247    1298
CTETRA      4036       1    1661    6373    6448    6449
CTETRA      4037       1     662    1297     865    1298
CTETRA      4038       1    1964    1571    2257    2258
CTETRA      4039       1    2259     524     406    4706
CTETRA      4040       1      23     183      22      27
CTETRA      4041       1    2260    2261    6942    6943
CTETRA      4042       1     632    1890    1707     515
CTETRA      4043       1     389     632    1126     650
CTETRA      4044       1    2262    5475    5400    5399
CTETRA      4045       1    1634    1114    1113    1399
CTETRA      4046       1    6750    5290    6898    6899
CTETRA      4047       1     879    1264    1226     880
CTETRA      4048       1     363    1226    1265     845
CTETRA      4049       1     524     406    4706    4690
CTETRA      4050       1    1226    1264     845     880
CTETRA      4051       1     502    1264    1226    1269
CTETRA      4052       1     582     614     308     580
CTETRA      4053       1     679    1749     651    2263
CTETRA      4054       1     914    2264    1169    1691
CTETRA      4055       1    2265    6352    6427    6428
CTETRA      4056       1    1169    1691    2264    1749
CTETRA      4057       1     524     406    4690    4739
CTETRA      4058       1    1832    1264    2266     845
CTETRA      4059       1    5276    5282    1397    5283
CTETRA      4060       1    1226     845    1264    1265
CTETRA      4061       1    2205    4442    4441    4460
CTETRA      4062       1    1955    1363    1268    1265
CTETRA      4063       1     524    2225    4739    4738
CTETRA      4064       1    1832    1264    1266    2267
CTETRA      4065       1     502     506    1265    1268
CTETRA      4066       1    5067    5068     623    5066
CTETRA      4067       1    1602    1955    1363    1268
CTETRA      4068       1    2268    1412    1776    1351
CTETRA      4069       1    1351    2268    1412    1409
CTETRA      4070       1    1204    1776    1351    1689
CTETRA      4071       1    1839    1841    1838    1689
CTETRA      4072       1    2269    4930    4944    4922
CTETRA      4073       1    1846    1839    1408    1874
CTETRA      4074       1    2216    4585    4549    4548
CTETRA      4075       1    1839    1840    1841    1982
CTETRA      4076       1     229    1351    1411    1689
CTETRA      4077       1    5009     949    5001    2270
CTETRA      4078       1    1352    2271    1724     559
CTETRA      4079       1    1975    2272    2273    2274
CTETRA      4080       1     559    1299    1975    1298
CTETRA      4081       1    5425    2275    2103    5500
CTETRA      4082       1    1975    2276    1299    2271
CTETRA      4083       1    1975     750    1299    2276
CTETRA      4084       1    1975    1298    2277    1724
CTETRA      4085       1    1975    2273    2278    2274
CTETRA      4086       1    2279    6300    6301    6225
CTETRA      4087       1    2280    2281    4228     966
CTETRA      4088       1    1206    1211     697    1145
CTETRA      4089       1    1206    1143    1146    1212
CTETRA      4090       1    1181    1183    1193    1182
CTETRA      4091       1    1206    1210    1184    1190
CTETRA      4092       1     333     332     600     499
CTETRA      4093       1     836     483     647     834
CTETRA      4094       1     333     602     603    1471
CTETRA      4095       1     872    2282    1645     860
CTETRA      4096       1     600     499     487     489
CTETRA      4097       1     601     497     332     499
CTETRA      4098       1    1891    4867    4868    4855
CTETRA      4099       1    1577    2283    6559    2284
CTETRA      4100       1     701    2285    2286    2287
CTETRA      4101       1     489     494    1520     487
CTETRA      4102       1    1485    2288    1137     958
CTETRA      4103       1     611    4750    4740    4739
CTETRA      4104       1    2289    2290    2291    2239
CTETRA      4105       1     235     103     200     781
CTETRA      4106       1     620    1418    1513    1419
CTETRA      4107       1     619    1012     689     683
CTETRA      4108       1     914     251    1169    2264
CTETRA      4109       1     582    1169     914     251
CTETRA      4110       1    1086    5336    5335    5348
CTETRA      4111       1     351     347     346     343
CTETRA      4112       1     687     262     758     756
CTETRA      4113       1     706     707     709    1965
CTETRA      4114       1    2292    5304    5297    5303
CTETRA      4115       1    2293    6146    6071    6070
CTETRA      4116       1     524     172    2225    4738
CTETRA      4117       1     615    1485     913    1137
CTETRA      4118       1     424     569     386     567
CTETRA      4119       1    2122    2294    2295    1575
CTETRA      4120       1    2122    2295    2296     769
CTETRA      4121       1    2122     767     769    2296
CTETRA      4122       1     253    1623     254     256
CTETRA      4123       1     330    6409    6334    6333
CTETRA      4124       1    1205    6710    6635    6634
CTETRA      4125       1    2297     256    1994    2298
CTETRA      4126       1     255     256    1994    2297
CTETRA      4127       1    2299    1627     883     253
CTETRA      4128       1    2300    6518    6443    6442
CTETRA      4129       1    2297     255     256     253
CTETRA      4130       1    1899    1731    1492    2301
CTETRA      4131       1    1684    6445    6521    6446
CTETRA      4132       1    6778    2302    6703    6779
CTETRA      4133       1    2303    2304    2075    2305
CTETRA      4134       1    2306    2307    4922    2308
CTETRA      4135       1     883    2299     253    1237
CTETRA      4136       1     253    1214    1237    2299
CTETRA      4137       1     253    2297     255    1214
CTETRA      4138       1     325     326    5842    5767
CTETRA      4139       1    1612    1615    1333    1613
CTETRA      4140       1    1600    1616    2309    2310
CTETRA      4141       1    1600    1334    1616    2311
CTETRA      4142       1    1601    1363     844    1600
CTETRA      4143       1     491     494     864     490
CTETRA      4144       1    2312    4795    4807    4808
CTETRA      4145       1    2313    4910    5138    5140
CTETRA      4146       1    5379    7064    4872    4873
CTETRA      4147       1    2314    5209    2315    5153
CTETRA      4148       1     661     866     662     865
CTETRA      4149       1    1103    1312     448     449
CTETRA      4150       1    2316    1817    1254    2317
CTETRA      4151       1    1369    2318    2319    2320
CTETRA      4152       1    2316    2317    1254     678
CTETRA      4153       1    2321    2322    5158    2323
CTETRA      4154       1    2324    2316    2325    2326
CTETRA      4155       1    2319    5215    5216    5160
CTETRA      4156       1     317    1814     923    1305
CTETRA      4157       1    1250    1386    2327    1232
CTETRA      4158       1    2328    1385    2329    1250
CTETRA      4159       1    2330    2331    2332    2209
CTETRA      4160       1    2328    1960    1647    2329
CTETRA      4161       1    2328    2333    2329    1647
CTETRA      4162       1    1253    1648    2333    1250
CTETRA      4163       1    2334    2335    2336    1941
CTETRA      4164       1    2211    4520    4524    4525
CTETRA      4165       1    2337    6408    6484    6409
CTETRA      4166       1    1599    1011    1648    1018
CTETRA      4167       1    2338     909    1049    5085
CTETRA      4168       1    2328    1018    1648    1647
CTETRA      4169       1    5069    6770    5085    6879
CTETRA      4170       1    2339    2340    2253     649
CTETRA      4171       1    5422    6984    6985    4488
CTETRA      4172       1    2339    2094    2305    2253
CTETRA      4173       1    5069    6878    6771    6770
CTETRA      4174       1    2339    2341    2342    1613
CTETRA      4175       1    2343    1613    2305    2342
CTETRA      4176       1    1613    2305    2342    2339
CTETRA      4177       1    1496     589     290    1677
CTETRA      4178       1     851     290     591    1472
CTETRA      4179       1     290     589     591    1472
CTETRA      4180       1    2344    2345    2346    2347
CTETRA      4181       1    1059    5370    5371    5358
CTETRA      4182       1    2291    5012    2348    4916
CTETRA      4183       1     288     290    1496    1634
CTETRA      4184       1    2051    4488    4486    4487
CTETRA      4185       1    1219      83    1884    1371
CTETRA      4186       1    2283    6483    6482    6558
CTETRA      4187       1    2349    2335    2350    2351
CTETRA      4188       1     623    4889     624    5064
CTETRA      4189       1    1434    2352    2353    1426
CTETRA      4190       1     624     540    6759    6760
CTETRA      4191       1     673    2354    2294    1963
CTETRA      4192       1     673    2294    2354    2355
CTETRA      4193       1     673    2356    2186    2294
CTETRA      4194       1    1205    6785    6710    6709
CTETRA      4195       1    2357    5802    5727    5726
CTETRA      4196       1    5414    6976    6977    4379
CTETRA      4197       1     635    5352    5340    5339
CTETRA      4198       1     391     670     672     797
CTETRA      4199       1    1586    1585    5391    5466
CTETRA      4200       1    2358     903    2359    2031
CTETRA      4201       1     864     494    1871     490
CTETRA      4202       1     673    1802    1866    2355
CTETRA      4203       1    1299    1798    1123    2276
CTETRA      4204       1    1975    2276    2273     750
CTETRA      4205       1    1299     866    1798     750
CTETRA      4206       1    2360    2361    2362    2363
CTETRA      4207       1    2364    5955    5956    5880
CTETRA      4208       1    2365    2366    2367    2351
CTETRA      4209       1     627     492     519     660
CTETRA      4210       1    1400     600    2155    1056
CTETRA      4211       1     603    2368     600    2155
CTETRA      4212       1     489     600     488     487
CTETRA      4213       1    4989    2369    2370    4992
CTETRA      4214       1    2365    2371    2372    2367
CTETRA      4215       1     488    1056     489     490
CTETRA      4216       1    2372    2373    2374    2336
CTETRA      4217       1    1552    5373    5374    5361
CTETRA      4218       1     282     686    1012     683
CTETRA      4219       1    1468    1986    2375    2364
CTETRA      4220       1    2376    6113    6112    6188
CTETRA      4221       1     282     279     280    1011
CTETRA      4222       1     620    1418     278    1417
CTETRA      4223       1    6784    6865    4976    6864
CTETRA      4224       1    1122    1124     526    1688
CTETRA      4225       1     717    1405    1719     982
CTETRA      4226       1     665    5025    5026    5024
CTETRA      4227       1    2349    2365    2351    2366
CTETRA      4228       1    2334    2377    2378    1671
CTETRA      4229       1    1674    1159    1673    1702
CTETRA      4230       1    1382    1437    1671    1672
CTETRA      4231       1    1063    1439      95    1437
CTETRA      4232       1    2379    1518    1202    1925
CTETRA      4233       1    6762    5065    6763    6886
CTETRA      4234       1     377    2380    2363     378
CTETRA      4235       1    2381    6763    6688    6687
CTETRA      4236       1    2380    5046    2363     378
CTETRA      4237       1    1518    1672    1925    1740
CTETRA      4238       1    1998    5052    4892    4893
CTETRA      4239       1    2382    7030    5139    5131
CTETRA      4240       1    6763    5060    6764    6885
CTETRA      4241       1    1672    1437    1671    2383
CTETRA      4242       1    2352    2353    1426    2384
CTETRA      4243       1    2385    5136    5125    5135
CTETRA      4244       1    2386     961     828     698
CTETRA      4245       1    6616    6691    6615    2387
CTETRA      4246       1    2386    2388     698    1167
CTETRA      4247       1     739    6390    6391    6315
CTETRA      4248       1    6378    2389    1476    2250
CTETRA      4249       1    2386    2390    1944    1167
CTETRA      4250       1    2386    1935    2391    2390
CTETRA      4251       1    2386     961    2390     828
CTETRA      4252       1    2110    4585    4569    4570
CTETRA      4253       1    2386    1935    2390     961
CTETRA      4254       1    1452     255     254     879
CTETRA      4255       1    2275    4517    4505    4516
CTETRA      4256       1    2392    5138    4910    5137
CTETRA      4257       1    1099    5229    5244    5245
CTETRA      4258       1    2393    4684    4287    4288
CTETRA      4259       1     474    2394    2395    2396
CTETRA      4260       1     879     255    1994     878
CTETRA      4261       1     502    1342     501    1267
CTETRA      4262       1     502    1266    1268    1265
CTETRA      4263       1    6690    2387    6691    2397
CTETRA      4264       1    2398     163     910    1598
CTETRA      4265       1     879    1226    1269    1452
CTETRA      4266       1    1363    1601     844    1227
CTETRA      4267       1    1264     845     880    2266
CTETRA      4268       1    1832    1227     845    2266
CTETRA      4269       1    1832    1264    2267    2266
CTETRA      4270       1    1363    1602    1600    2399
CTETRA      4271       1    2400    5211    5210    5240
CTETRA      4272       1    1363    1955    1602    2399
CTETRA      4273       1    6744    5302    6904    6905
CTETRA      4274       1    1600    2399    1602    2310
CTETRA      4275       1    6519    2401    6444    6520
CTETRA      4276       1    1602    2399    1955    2402
CTETRA      4277       1    1602    2403    2399    2402
CTETRA      4278       1    1602     400    2404    2403
CTETRA      4279       1    1602    2404     400    1955
CTETRA      4280       1    1602    1603    2404    1268
CTETRA      4281       1    2087    5828    5827    5903
CTETRA      4282       1    2405    2404    2311    1603
CTETRA      4283       1    2398     163    5464    4720
CTETRA      4284       1     469    1658    1317    1910
CTETRA      4285       1    2156    2261    2406    2407
CTETRA      4286       1    2408    4861    4878    4862
CTETRA      4287       1     843     842    1660     788
CTETRA      4288       1    1891    4856    4844    4843
CTETRA      4289       1     356     354     355    2029
CTETRA      4290       1    2408    4860    4861    4848
CTETRA      4291       1     831    4291    4688    4290
CTETRA      4292       1    2409    2410    2411    2412
CTETRA      4293       1    2413    5217    5216    5265
CTETRA      4294       1     842    1047    1240    2414
CTETRA      4295       1    2152    5925    5850    5849
CTETRA      4296       1     257     475     375     260
CTETRA      4297       1     841    1706     845    1831
CTETRA      4298       1     842    2415    1240    1706
CTETRA      4299       1    2128    5781    5782    5706
CTETRA      4300       1    2414     842    2415    1240
CTETRA      4301       1     842    2416    1660    2414
CTETRA      4302       1     842    1046    1047    1946
CTETRA      4303       1     263     536     259     272
CTETRA      4304       1    2417     213     618     214
CTETRA      4305       1    2102    4365    4364    6968
CTETRA      4306       1     127      49      55    5097
CTETRA      4307       1    2417    2418     171    2419
CTETRA      4308       1    1087    1086    5360    5348
CTETRA      4309       1    1552    2420    5377    5376
CTETRA      4310       1    2421    4722    4723    4721
CTETRA      4311       1     862    1763    1639    2417
CTETRA      4312       1    2422    5330    5329    5342
CTETRA      4313       1    2417    1639     171     169
CTETRA      4314       1    2381    6688    6764    6689
CTETRA      4315       1    2417    2423     171    2418
CTETRA      4316       1    2417    1763    1639     169
CTETRA      4317       1    1070    1375    1076    1910
CTETRA      4318       1    2424    4465    4549    4466
CTETRA      4319       1    2425    5050    2426    2427
CTETRA      4320       1    1076    1075    1465    1375
CTETRA      4321       1    5439    7002    4658    7001
CTETRA      4322       1    2428    4613    4573    4604
CTETRA      4323       1    2397    6765    6690    6689
CTETRA      4324       1    5429    6992    4534    6991
CTETRA      4325       1    6765    5059    6766    6883
CTETRA      4326       1    1553    1547    5512    5437
CTETRA      4327       1    1077    1076    1075    1465
CTETRA      4328       1    1073    1075    1375    1455
CTETRA      4329       1    1054    1482    1481    1415
CTETRA      4330       1    1703    1480    1375    1430
CTETRA      4331       1    1375    1075    1465    1455
CTETRA      4332       1     286     316     293     851
CTETRA      4333       1    2210    4620    4619    4622
CTETRA      4334       1    1451    1472     315     851
CTETRA      4335       1     847    1217    2214    2429
CTETRA      4336       1    2430    4511    4512    4466
CTETRA      4337       1     847    2429    1374    1392
CTETRA      4338       1     847     848     849    2214
CTETRA      4339       1     847    1374     292    1392
CTETRA      4340       1     289     390     848    1217
CTETRA      4341       1     291    1219    1218      83
CTETRA      4342       1    2351    2335    2365    2349
CTETRA      4343       1    2326    1921    2324    2316
CTETRA      4344       1     345    1751    1254     348
CTETRA      4345       1    2316    1254    2326     678
CTETRA      4346       1    2431    5771    5695    5770
CTETRA      4347       1     345    1254    1255     348
CTETRA      4348       1    1751    1818    1254     348
CTETRA      4349       1    2432    4242    4246    4219
CTETRA      4350       1    1254     678    1255    2326
CTETRA      4351       1     678    1254    1256    2317
CTETRA      4352       1     462    1231    1233    1386
CTETRA      4353       1     462    1102     551    1386
CTETRA      4354       1    1102    1233    2433    1309
CTETRA      4355       1     160    4959    4972    4971
CTETRA      4356       1    1102    1386    1233    1309
CTETRA      4357       1    1835    2434    2435    2436
CTETRA      4358       1    1835    2354    2435    2434
CTETRA      4359       1    1835     797    1964    1371
CTETRA      4360       1    1457    6804    2437    2438
CTETRA      4361       1    1835    2439      79    1837
CTETRA      4362       1    2440    4250    4254    4255
CTETRA      4363       1    1835     797      79      80
CTETRA      4364       1    2441    4284    4283    4444
CTETRA      4365       1    1835    2354    1963    2439
CTETRA      4366       1    1835    2439      80      79
CTETRA      4367       1     306    4728    4729    4719
CTETRA      4368       1     620    1513     706     708
CTETRA      4369       1    1419    1425    1424    2442
CTETRA      4370       1    2304    2443    5831    5830
CTETRA      4371       1    4601     474    2407    7067
CTETRA      4372       1    1419    2444    1507    1425
CTETRA      4373       1    2445    2446     417    5149
CTETRA      4374       1     633     874     876    2012
CTETRA      4375       1     424     561     633     560
CTETRA      4376       1     565     566     579     468
CTETRA      4377       1    2447    2448    2449    2372
CTETRA      4378       1     937     559    1352     557
CTETRA      4379       1     633     876    1071    2012
CTETRA      4380       1     565     567     577     568
CTETRA      4381       1    1988    2450    1985    1954
CTETRA      4382       1    1988    1954    1165    2451
CTETRA      4383       1    1316    1988    1166    1165
CTETRA      4384       1    1988    1316    1166    1320
CTETRA      4385       1     827    1658    1754    1166
CTETRA      4386       1    1983    1988    1985    1166
CTETRA      4387       1    1983    1988    1166    1320
CTETRA      4388       1    2381    6687    6762    6763
CTETRA      4389       1    6800    4273    6830    6831
CTETRA      4390       1    6801    6830    4273    4265
CTETRA      4391       1    2452    4882    4936    4931
CTETRA      4392       1    6795    4269    6835    6836
CTETRA      4393       1    1773    2453     435    1772
CTETRA      4394       1    2454    2455    6116    6191
CTETRA      4395       1     970    4506    4517    4518
CTETRA      4396       1    2425    5054    5049    5050
CTETRA      4397       1    2456    2457    2226    2458
CTETRA      4398       1    5154    2459    5153    5196
CTETRA      4399       1    1897    1899    1770    1783
CTETRA      4400       1     831    4291    4290    4418
CTETRA      4401       1    2213    5316    2460    6951
CTETRA      4402       1     624    6760    4889     623
CTETRA      4403       1    1897    1770    1899    2461
CTETRA      4404       1    2458    2394    2226    2462
CTETRA      4405       1     538    6762    6687    6686
CTETRA      4406       1    1897    1783    1784    1900
CTETRA      4407       1    1781    1771     629    1786
CTETRA      4408       1    1772    1790    2463    2453
CTETRA      4409       1    1495    5233    5235    5229
CTETRA      4410       1    1771    1784    1783     973
CTETRA      4411       1     853     861    1762     621
CTETRA      4412       1     634    5366    6914    6913
CTETRA      4413       1     853     862    1303    1763
CTETRA      4414       1     793    4780    4302    4781
CTETRA      4415       1    1303    2464    1447    1763
CTETRA      4416       1    2465    2428    2466    4594
CTETRA      4417       1    1303    1305    1447    2464
CTETRA      4418       1    2467    5038    5039    5037
CTETRA      4419       1    2398     910    4720    4719
CTETRA      4420       1    1728    5326    5314    5313
CTETRA      4421       1    1751     348    1281    1818
CTETRA      4422       1     128    4791    7032    7031
CTETRA      4423       1    1586    2398    4731     306
CTETRA      4424       1    1629     862     618     319
CTETRA      4425       1    1744    4802    4789    4801
CTETRA      4426       1    5037    2468    2469    4913
CTETRA      4427       1    2470    7039    5205    5208
CTETRA      4428       1     317    1303     161    1814
CTETRA      4429       1    1629     319     618     616
CTETRA      4430       1    2464     862    1303     618
CTETRA      4431       1    2407    7067    6942    4602
CTETRA      4432       1    4314    2048    4417    4316
CTETRA      4433       1     253     256    2471    1623
CTETRA      4434       1     879     254    1452    1269
CTETRA      4435       1     254    2472    1452    1269
CTETRA      4436       1    2473    5853    5852    5928
CTETRA      4437       1    4731    4728    4729     306
CTETRA      4438       1    1995    6914    5367    6913
CTETRA      4439       1    1995    6914     634    5378
CTETRA      4440       1    2103    5425    5501    5426
CTETRA      4441       1    2474    2275     970    2475
CTETRA      4442       1     254    1624    2476    2477
CTETRA      4443       1     474    7067    4601    6953
CTETRA      4444       1    5378    1552    5365     634
CTETRA      4445       1    6943    2260    2212    5308
CTETRA      4446       1    2478    4388    4386    4369
CTETRA      4447       1     254    2477     256    1623
CTETRA      4448       1     438     431    1224    1223
CTETRA      4449       1     970    2275    5426    4521
CTETRA      4450       1     431    1791    1335    1790
CTETRA      4451       1    2479     431    1791    1335
CTETRA      4452       1     431    1223    2479    1101
CTETRA      4453       1     495    4747     298    4751
CTETRA      4454       1     435     548     432    1790
CTETRA      4455       1    1995    5381    5368    5380
CTETRA      4456       1    5381    7062    4873    4875
CTETRA      4457       1     550     548    1790     549
CTETRA      4458       1    5381    4875    7061    7062
CTETRA      4459       1     438     431     825    1224
CTETRA      4460       1    2480    2481    2482    2483
CTETRA      4461       1     756     758     759     893
CTETRA      4462       1    2484    4377    4378    4376
CTETRA      4463       1     761    1092     893    1090
CTETRA      4464       1     760     882     756    1096
CTETRA      4465       1    5365    5353    5366     634
CTETRA      4466       1     634    5366    5365    5378
CTETRA      4467       1     957    1412     221    1204
CTETRA      4468       1    5354     636    6912    6913
CTETRA      4469       1    1908    4687    4685    4686
CTETRA      4470       1     761    2485    1824    1091
CTETRA      4471       1     761    1092    1090    1091
CTETRA      4472       1     623    6760    6761    6685
CTETRA      4473       1    2055    2057    2486     656
CTETRA      4474       1    2055     659    2487     656
CTETRA      4475       1    2055    2488    2489    1941
CTETRA      4476       1    2336    2490    2491     645
CTETRA      4477       1    1822    2492    2493    1820
CTETRA      4478       1    1258    1259    2494    1257
CTETRA      4479       1     759    1822    1262    1257
CTETRA      4480       1    1822    2493    1821    1820
CTETRA      4481       1    1319    2495    1651    2496
CTETRA      4482       1    1319    2497    2498    2451
CTETRA      4483       1    1315     285    1318     848
CTETRA      4484       1    1315     964    1319    1316
CTETRA      4485       1    1319    1651    1652    2496
CTETRA      4486       1    1319    2451    2498    1652
CTETRA      4487       1     623    6888    5067    6761
CTETRA      4488       1    1308     702    2499     703
CTETRA      4489       1    1234    1232    1309    1233
CTETRA      4490       1    1308    1746     154    1814
CTETRA      4491       1    2481    2500    2501    2482
CTETRA      4492       1    1308    1307    1309     703
CTETRA      4493       1    1128    1015     468    1131
CTETRA      4494       1     162    4838    4850    4851
CTETRA      4495       1    4878    4860    7041    7042
CTETRA      4496       1    4863    4864    7045    4880
CTETRA      4497       1    4865    4880    7046    4864
CTETRA      4498       1    1130     566    2031    1131
CTETRA      4499       1    1131     876     976    2502
CTETRA      4500       1    1131    1013    1014    1015
CTETRA      4501       1    1491     162    4837    4836
CTETRA      4502       1    1131    1014    1013    2502
CTETRA      4503       1     128    4790    4791    7031
CTETRA      4504       1    1022    1131    1071    1072
CTETRA      4505       1    1131    1072    1022    1013
CTETRA      4506       1    1828    5066    5065    5067
CTETRA      4507       1    2484    2503    4376    2504
CTETRA      4508       1    1131    1071     876    2502
CTETRA      4509       1     468    1071    1131    1072
CTETRA      4510       1     634    5366    5378    6914
CTETRA      4511       1    6935    7070     283    7040
CTETRA      4512       1    2406    4316    4315    6943
CTETRA      4513       1    2505    4316    4314    4315
CTETRA      4514       1    2506    2507    2508    2509
CTETRA      4515       1    1128    1129     566    1355
CTETRA      4516       1    2510    1174    1106    2511
CTETRA      4517       1     637    4889    6758    5258
CTETRA      4518       1    2260    2212    5308    5307
CTETRA      4519       1    2506    2512    2513    2514
CTETRA      4520       1    1890    1174    1106    2510
CTETRA      4521       1    1890     568    1174     650
CTETRA      4522       1     486    7032    4912    7031
CTETRA      4523       1     632    1890     515    2510
CTETRA      4524       1    1890    1707     515    2515
CTETRA      4525       1     632    1890     650     568
CTETRA      4526       1     540    6760    6685    6684
CTETRA      4527       1    2275     970    4517    4521
CTETRA      4528       1    1673    1733    2516    1734
CTETRA      4529       1    1083    1673    1381    2067
CTETRA      4530       1    1702    1673    1734    1733
CTETRA      4531       1    2517    4313    4408    4312
CTETRA      4532       1     179     735    1740     201
CTETRA      4533       1    1159     180     605    1733
CTETRA      4534       1    2518     849    2161    2167
CTETRA      4535       1    1861     963    1373    1450
CTETRA      4536       1    2519    2520    2521    2522
CTETRA      4537       1     851     292     847    1374
CTETRA      4538       1     851    1374    1450     591
CTETRA      4539       1    4868    7049    4881    7050
CTETRA      4540       1    1392    1374     292     590
CTETRA      4541       1    2092    4225    4220    4224
CTETRA      4542       1    2523    4939    4938    4934
CTETRA      4543       1     851    1451     591    1450
CTETRA      4544       1     984     983    1697    1271
CTETRA      4545       1     983    2524    1697    2525
CTETRA      4546       1    4866    4867    1474    4854
CTETRA      4547       1    1491    4846    4847    4834
CTETRA      4548       1     983     834    1667    1271
CTETRA      4549       1     226     984     334    1270
CTETRA      4550       1    1664    1665     983    1666
CTETRA      4551       1    2408    4877    4860    6941
CTETRA      4552       1     983    2525    1667    1666
CTETRA      4553       1    7070     284    7029    4788
CTETRA      4554       1    2408    4861    4849    4848
CTETRA      4555       1    1473    4879    4877    4881
CTETRA      4556       1    2082    4781    4300    4773
CTETRA      4557       1    2526    6910    5330    6911
CTETRA      4558       1     983    1665    2524    2525
CTETRA      4559       1    2507    2527    1764    1927
CTETRA      4560       1    2528    2509    2507    2529
CTETRA      4561       1    2528    1489    2530    2527
CTETRA      4562       1    2528    1489    1834    2531
CTETRA      4563       1    4876    5388    7055    7054
CTETRA      4564       1    2528    1489    1927    1834
CTETRA      4565       1    7053    5389    5390    4872
CTETRA      4566       1    2528    2532    1927    2509
CTETRA      4567       1    2528    2532    2533    2531
CTETRA      4568       1    2528    2533    2530    2531
CTETRA      4569       1     872     717    1719     835
CTETRA      4570       1     872    1405    1321    1379
CTETRA      4571       1     434     646     715     835
CTETRA      4572       1    5387    4876    7055    7056
CTETRA      4573       1     832    1718     835    1322
CTETRA      4574       1     715     714     435     833
CTETRA      4575       1    2534    1426    2535    2384
CTETRA      4576       1    2536     128    4792    7033
CTETRA      4577       1    2537    4872    5379    6915
CTETRA      4578       1    2420    5385    4874    5386
CTETRA      4579       1    5389    4876    4872    7054
CTETRA      4580       1     832     985     983    1665
CTETRA      4581       1    1664     832    1665    1789
CTETRA      4582       1    1100    1667     834    1258
CTETRA      4583       1     836     837     604    1471
CTETRA      4584       1    2538    4665    6949    4786
CTETRA      4585       1    6756    6757    6892    5262
CTETRA      4586       1    1729    5325    5337    5338
CTETRA      4587       1     882     210     756     258
CTETRA      4588       1     238     986     987    1012
CTETRA      4589       1     479    1100    1258    1127
CTETRA      4590       1    1862    2439    1007    1864
CTETRA      4591       1    2312    1744    4806    4794
CTETRA      4592       1    2422    1729     636    5341
CTETRA      4593       1    1862    1867    2539    1886
CTETRA      4594       1    2540    4667    4668    4685
CTETRA      4595       1    1862    2539    1884    1837
CTETRA      4596       1    2246    6042    6118    6043
CTETRA      4597       1    2541    4824    4812    6937
CTETRA      4598       1    1862    2539    1889    1886
CTETRA      4599       1    2104     970    2542    2543
CTETRA      4600       1    2454    6115    6116    6040
CTETRA      4601       1    1693    2544    2545    2546
CTETRA      4602       1    1693    1695    2547    2548
CTETRA      4603       1    1693    2549    2550    2547
CTETRA      4604       1    1693    2549    2545    2550
CTETRA      4605       1    1693    2547    1695    1691
CTETRA      4606       1     257     260     262     475
CTETRA      4607       1     229    1350     225    1411
CTETRA      4608       1     758    1127     759    1260
CTETRA      4609       1    4505    2475    4506    2275
CTETRA      4610       1     758     759     893    1260
CTETRA      4611       1    5357    1087    5358    1059
CTETRA      4612       1    2551    4419    4420    4413
CTETRA      4613       1    1728    5326    5327    5314
CTETRA      4614       1     283    7040    7039    4799
CTETRA      4615       1    2509    2552    2115    2508
CTETRA      4616       1    2213    5314    6949    6948
CTETRA      4617       1    2553    5842    5918    5843
CTETRA      4618       1    2554    2555    4415    4316
CTETRA      4619       1    6078    6079    2556    6003
CTETRA      4620       1     886     676    1019     890
CTETRA      4621       1    2185    4412    6946    4291
CTETRA      4622       1    2557    4414    4416    4413
CTETRA      4623       1    2199    6076    6000    6075
CTETRA      4624       1    4871    4870    1473    4877
CTETRA      4625       1    5310    6945     639    6944
CTETRA      4626       1     639    6945    5310    5311
CTETRA      4627       1     260     676     886     890
CTETRA      4628       1     792    4291    6947    4688
CTETRA      4629       1    1271     484    1820     972
CTETRA      4630       1     479     464     463    1100
CTETRA      4631       1     978    1383     287    1676
CTETRA      4632       1     625    1225    1551    1177
CTETRA      4633       1    1059    5360    5373    5361
CTETRA      4634       1    1267    1269    1342    2472
CTETRA      4635       1    1267    1269    1993    1266
CTETRA      4636       1    1267    1269    2476    1993
CTETRA      4637       1    1342    1267    2472    2558
CTETRA      4638       1    1059    5384    5385    5372
CTETRA      4639       1    4874    5384    5383    7059
CTETRA      4640       1    1729    5351     635    5339
CTETRA      4641       1    1342    2559    1141     501
CTETRA      4642       1    1391    1442    1112    2560
CTETRA      4643       1    1109    1391    1111    1114
CTETRA      4644       1    1085    5358    5345    5357
CTETRA      4645       1    1391    1442    2560    1568
CTETRA      4646       1    2508    2561    2562     934
CTETRA      4647       1    1566    1391    1568    1370
CTETRA      4648       1    5321    2212    5309    5322
CTETRA      4649       1    5322    2563    5321    2212
CTETRA      4650       1     639    5311    6946    6945
CTETRA      4651       1    5311     639    5312    2212
CTETRA      4652       1     342     284    6935    4788
CTETRA      4653       1    1391    1371    1442    1370
CTETRA      4654       1    1086    1085    5347    5335
CTETRA      4655       1    1566     531    1391    1370
CTETRA      4656       1     501     503     504    1141
CTETRA      4657       1     344     682     679     651
CTETRA      4658       1    2526    5343    5344    5331
CTETRA      4659       1     877     881    1365     882
CTETRA      4660       1    1085    1086    5359    1087
CTETRA      4661       1    2455    6191    6192    6116
CTETRA      4662       1    2212    5323    2563    5324
CTETRA      4663       1    7030     130    4789    7029
CTETRA      4664       1     475     890    1098    1046
CTETRA      4665       1    5307    7067    2260    2460
CTETRA      4666       1    2275    2564    4504    4505
CTETRA      4667       1    2526     636    6911    5342
CTETRA      4668       1     274     504     536     503
CTETRA      4669       1    1137    1762     621    2565
CTETRA      4670       1    4516    5425    4504    2275
CTETRA      4671       1     861    1762     621    1137
CTETRA      4672       1    2261    6944    4316    6943
CTETRA      4673       1    5860    2566    5935    5859
CTETRA      4674       1    1493    5233    5237    5234
CTETRA      4675       1    2507    2508    2567    2561
CTETRA      4676       1    1326    1762    1330    1327
CTETRA      4677       1    4850     162    4862    4849
CTETRA      4678       1    1762    2565    1833    1330
CTETRA      4679       1    2483    1579    1581    2568
CTETRA      4680       1    1506    4687    4688    6948
CTETRA      4681       1    1765    4899    4900    5130
CTETRA      4682       1    6757    6758    6891    5261
CTETRA      4683       1    2569    6152    6153    6077
CTETRA      4684       1    1274     348    2483    1856
CTETRA      4685       1    1491    2570    6939    4847
CTETRA      4686       1    2483    1255    1581    1579
CTETRA      4687       1     131    7030     130     128
CTETRA      4688       1    1765    4898    4899    5134
CTETRA      4689       1    2406    4315    4602    6942
CTETRA      4690       1    1919    6062    6138    6063
CTETRA      4691       1    2571    6156    6157    6081
CTETRA      4692       1     548     465    2572     714
CTETRA      4693       1     454     548     461     465
CTETRA      4694       1    4665    2538    1506    4666
CTETRA      4695       1    2445    5149    4887    4888
CTETRA      4696       1    2573    6151    6152    6076
CTETRA      4697       1    1474     162    4862    4863
CTETRA      4698       1    4878    4861    7042    7043
CTETRA      4699       1     549    1791    1790     550
CTETRA      4700       1     462    1102    1386    1233
CTETRA      4701       1    2224    2574    6299    2279
CTETRA      4702       1     433    1791     431    1790
CTETRA      4703       1     984     985    1471    1681
CTETRA      4704       1    6580    6579    2575    6655
CTETRA      4705       1     223    1557     542    1689
CTETRA      4706       1     287     803    1391    1114
CTETRA      4707       1    2576    2577    2578    2579
CTETRA      4708       1    1678    1683    2492    1895
CTETRA      4709       1    2420    5386    5374    5373
CTETRA      4710       1    1474    2408    4878    4862
CTETRA      4711       1      85     796      69      66
CTETRA      4712       1    1682    1880    1270    1846
CTETRA      4713       1     986    1970     689    1748
CTETRA      4714       1     986    1358    1970    1946
CTETRA      4715       1     987     986     689    1012
CTETRA      4716       1     250    1659    1617    1358
CTETRA      4717       1    2570    4847    6940    6939
CTETRA      4718       1    4879    4867    7048    4881
CTETRA      4719       1     337     410     322     421
CTETRA      4720       1    1473    4881    4868    4867
CTETRA      4721       1    2580    4666    4787    4667
CTETRA      4722       1     987    1617     689    1970
CTETRA      4723       1     790    1659    1170     251
CTETRA      4724       1    2048    2505    4314    2036
CTETRA      4725       1    4459    2581    2202    4285
CTETRA      4726       1    6756    6755    5260    6893
CTETRA      4727       1    7070     283    7040     131
CTETRA      4728       1     494     767     660     492
CTETRA      4729       1    2473    6002    6003    5927
CTETRA      4730       1    1059    5382    5383    5370
CTETRA      4731       1    2393    4668    4684    4685
CTETRA      4732       1    2537    4875    5383    5382
CTETRA      4733       1     284    7029    4789     130
CTETRA      4734       1     674     936     142     616
CTETRA      4735       1    2513    2512    2506    2509
CTETRA      4736       1    1087    1729    5336    5337
CTETRA      4737       1     128    4789    4790    7030
CTETRA      4738       1    7038     283    4798    4797
CTETRA      4739       1    1376     660     498    1799
CTETRA      4740       1     636     634    6913    5354
CTETRA      4741       1    1490    4839    4827    4826
CTETRA      4742       1     494    2186    1520    1885
CTETRA      4743       1     494     767    2186    1885
CTETRA      4744       1    1927    2582    2583    2509
CTETRA      4745       1     864     494    2186    1871
CTETRA      4746       1    1590    2584    2232    2585
CTETRA      4747       1    2536    4794    7035    7034
CTETRA      4748       1    1744    4803    4815    4816
CTETRA      4749       1    2586    2005    2587    2588
CTETRA      4750       1    2406    4315    4590    4602
CTETRA      4751       1    1588     982     526    1924
CTETRA      4752       1    6949    2538    1506    4665
CTETRA      4753       1    2059    5035    7035    4888
CTETRA      4754       1     342    4809    4810    4797
CTETRA      4755       1    1995    5367    5379    5380
CTETRA      4756       1    1686    4603    4596    4303
CTETRA      4757       1    1473    1474    2408    4879
CTETRA      4758       1    4801    1744    4802    4814
CTETRA      4759       1    1995    6913    1857     634
CTETRA      4760       1    1588    1924    1785     982
CTETRA      4761       1    1590    2232    2584    2589
CTETRA      4762       1    1473    2570    2408    1891
CTETRA      4763       1     162    4836    4848    4849
CTETRA      4764       1    4879    7047    7048    4866
CTETRA      4765       1    1590    1124    1589    2590
CTETRA      4766       1    2570    1891    4857    4845
CTETRA      4767       1    2059    7035    5035    7034
CTETRA      4768       1    2408     162    4848    4849
CTETRA      4769       1    1588    1785    1590    1589
CTETRA      4770       1    1590    2589    1124    2590
CTETRA      4771       1    1087    5359    1059    5360
CTETRA      4772       1    2067    2591    1427    1439
CTETRA      4773       1    1728    5324    5325    5312
CTETRA      4774       1     655     728     924     731
CTETRA      4775       1    2067    1427    1872    1439
CTETRA      4776       1    2526    6911    5331    6910
CTETRA      4777       1    2067    1636    1081    2592
CTETRA      4778       1    2428    4604    4573    4572
CTETRA      4779       1     793    4596    2593    4302
CTETRA      4780       1     828    1518    1202    2379
CTETRA      4781       1    2594    4779    6950    4780
CTETRA      4782       1    2595    4778    4787    4786
CTETRA      4783       1    1206    1207    1183     963
CTETRA      4784       1    1083    1439    1673    2067
CTETRA      4785       1     680    6756    5262    6757
CTETRA      4786       1    2378    1925    1202    1671
CTETRA      4787       1    1518    1672    1671    1925
CTETRA      4788       1    1202    2378    1671    1526
CTETRA      4789       1    2593    4301    4781    4302
CTETRA      4790       1    1527     960     961     924
CTETRA      4791       1    1728    5328    5315    5327
CTETRA      4792       1    1473    4858    2570    4857
CTETRA      4793       1    2596    6756    6757    6681
CTETRA      4794       1    1202    2390     961     828
CTETRA      4795       1    2597    1499    2598     330
CTETRA      4796       1     636    5343    2526    6911
CTETRA      4797       1    2005    6146    2599    6145
CTETRA      4798       1    2597    1466    2600    1470
CTETRA      4799       1    2597    1499     330    2600
CTETRA      4800       1    2597    1289    1295    1501
CTETRA      4801       1    2597    1501    1984    1289
CTETRA      4802       1    1984    2597    1470    1501
CTETRA      4803       1    2446    2121    2470    7038
CTETRA      4804       1    2316    2326    1254    1818
CTETRA      4805       1     445     678     677    1920
CTETRA      4806       1    1857    6912    5355    5343
CTETRA      4807       1     344     677     682     651
CTETRA      4808       1     344     346     581     682
CTETRA      4809       1    5344    1085    5357    1857
CTETRA      4810       1    2180    4306    4305    4478
CTETRA      4811       1    2397    6690    6766    6691
CTETRA      4812       1    2517    4417    4313    2036
CTETRA      4813       1     343     345     678    1255
CTETRA      4814       1     678    2317     677    2601
CTETRA      4815       1    2397    6766    6765    5059
CTETRA      4816       1     642     639     640     638
CTETRA      4817       1    2602    2603    1615    2263
CTETRA      4818       1    1612     445     677    1920
CTETRA      4819       1    6766    5048    6767    6882
CTETRA      4820       1    2048    4408    4417    4416
CTETRA      4821       1    1612    1920    1921    1616
CTETRA      4822       1    2604    6013    5938    5937
CTETRA      4823       1    2526    5344    5332    5331
CTETRA      4824       1    1612     677    1921    1920
CTETRA      4825       1     677     651    1615    2263
CTETRA      4826       1    2570    6940    2408    4848
CTETRA      4827       1    1707    2515    2605     190
CTETRA      4828       1    2606    5867    5868    5792
CTETRA      4829       1    5379    6915    4872    7064
CTETRA      4830       1    2607     190     192    1707
CTETRA      4831       1    6915    7068    4872    7064
CTETRA      4832       1    1707    2515     192     515
CTETRA      4833       1    2005    2599    6146    6221
CTETRA      4834       1     564    2607    1463    1707
CTETRA      4835       1    1890    1707    2605    2147
CTETRA      4836       1     569    2147     561     564
CTETRA      4837       1    2420    5386    5387    5374
CTETRA      4838       1     438    1222     439     440
CTETRA      4839       1     439    1725    1222    2073
CTETRA      4840       1    1225      36    1725    2073
CTETRA      4841       1     825    1101     839    1224
CTETRA      4842       1     434     717     835    1719
CTETRA      4843       1     430     461     548     435
CTETRA      4844       1     438    1224      39    1223
CTETRA      4845       1     438     824    1225    1224
CTETRA      4846       1    1059    5383    5384    5371
CTETRA      4847       1    2608    2229    1735    2609
CTETRA      4848       1    4860    4878    4877    2408
CTETRA      4849       1    2537    4874    4872    4876
CTETRA      4850       1    7062    5380    4873    7063
CTETRA      4851       1    2005    2220    2610    2611
CTETRA      4852       1    2608    1428    1732    2229
CTETRA      4853       1    2612    5038    5037    5040
CTETRA      4854       1    2613    7034    5041    7033
CTETRA      4855       1    2608    2614    1735    1732
CTETRA      4856       1    1132    1136    2531    2530
CTETRA      4857       1     510    1134     727     731
CTETRA      4858       1    2460    7067    6909    5307
CTETRA      4859       1     516     731     510     727
CTETRA      4860       1    1132    2531    1136    1133
CTETRA      4861       1    2615    4842    4829    4841
CTETRA      4862       1    2616    2617    5284    6752
CTETRA      4863       1    2019    4841    4829    4828
CTETRA      4864       1     960    1132    1133    1526
CTETRA      4865       1     957     221    1044     537
CTETRA      4866       1    1098    1706    1240    1365
CTETRA      4867       1     879    1269    1264    1993
CTETRA      4868       1    1098     890    1047    1046
CTETRA      4869       1    1491     162    2615    1490
CTETRA      4870       1     885    1365    1098     896
CTETRA      4871       1    4821    4833    4820    1745
CTETRA      4872       1    1891    4856    4855    4868
CTETRA      4873       1    1474    4865    4866    4853
CTETRA      4874       1    1257     759     480    1127
CTETRA      4875       1     364     475    1098    1046
CTETRA      4876       1     537     503     536    1249
CTETRA      4877       1     363     841    1043    1226
CTETRA      4878       1     748     754     907     747
CTETRA      4879       1    2266     845     880    2618
CTETRA      4880       1    2005    6296    2611    6221
CTETRA      4881       1    1474    4865    4852    4864
CTETRA      4882       1    2570    6939    4848    4836
CTETRA      4883       1    6941    7071    4877    7041
CTETRA      4884       1     880    1706     877    1120
CTETRA      4885       1    7036     129    2119    2446
CTETRA      4886       1    2616    5284    2617    5221
CTETRA      4887       1    6296    2619    6295    2005
CTETRA      4888       1    1706    1831    2618     845
CTETRA      4889       1    1706    1365    1118    1240
CTETRA      4890       1    5861    2604    5862    5937
CTETRA      4891       1    1743    1745    2615    1490
CTETRA      4892       1    5284    2616    6752    6896
CTETRA      4893       1    2019    4828    4840    4841
CTETRA      4894       1    1706    1118    1120    1119
CTETRA      4895       1    4839    2019    4840     162
CTETRA      4896       1    1706    1240    1118    1119
CTETRA      4897       1    2005    2220    2599    2610
CTETRA      4898       1    2541    6936    4812    4800
CTETRA      4899       1    2019    4841    2615    4829
CTETRA      4900       1    4877    4870    1473    7051
CTETRA      4901       1      61      87     233      65
CTETRA      4902       1    1709    2620    2621    2622
CTETRA      4903       1     654    1202     961     828
CTETRA      4904       1     916     736     827    1658
CTETRA      4905       1     201    1518     828    1740
CTETRA      4906       1    1382    1672    1700    1438
CTETRA      4907       1    1354    1287     732    1294
CTETRA      4908       1    1833    2527    2623    2624
CTETRA      4909       1    4788    4789     284    7029
CTETRA      4910       1    1833    1486    2625    1692
CTETRA      4911       1    1828    6762    6761    5067
CTETRA      4912       1    1326    1329    1833    1764
CTETRA      4913       1    1833    1329    2623    2527
CTETRA      4914       1    1833    1692    1137    1486
CTETRA      4915       1    2539    1886    1867    1888
CTETRA      4916       1    1862    1889    2539    1837
CTETRA      4917       1    2563    5332    5333    5320
CTETRA      4918       1    2211    4531    4525    4524
CTETRA      4919       1    1862     390    1884    1869
CTETRA      4920       1    1862    1837    1884      79
CTETRA      4921       1    1714    2626    1860    2627
CTETRA      4922       1    2616    6753    6896    6895
CTETRA      4923       1    4872    7054    7053    5389
CTETRA      4924       1    1714    2628    1717    1716
CTETRA      4925       1    1714    2629    2630    2631
CTETRA      4926       1    1714    2628    1860    2626
CTETRA      4927       1     288    1676     287    1634
CTETRA      4928       1    2632    5281    5278    5224
CTETRA      4929       1    2615    4842    4843    4830
CTETRA      4930       1    1744    4803    4804    4791
CTETRA      4931       1     288     293     310     290
CTETRA      4932       1    2633    2634    1741    2635
CTETRA      4933       1    4860    6941    4877    7041
CTETRA      4934       1     310    1675    1284    1025
CTETRA      4935       1     315    1284    1472    1451
CTETRA      4936       1     851     963     315    1451
CTETRA      4937       1    1027    1676    1793     908
CTETRA      4938       1     103     360    1026     781
CTETRA      4939       1    5320    5319    2563    5332
CTETRA      4940       1     793    4303    4596    4302
CTETRA      4941       1    1713    2636     971    1475
CTETRA      4942       1    1472     315     851     293
CTETRA      4943       1    2422    5330    5317    5329
CTETRA      4944       1     174     201     694     732
CTETRA      4945       1     469    1074    1375    1479
CTETRA      4946       1    1103     773     617     996
CTETRA      4947       1    2526    5331    5319    6910
CTETRA      4948       1    2460    6909    5319    5307
CTETRA      4949       1     636    5354    5341    5353
CTETRA      4950       1    1087    5361    5362    5349
CTETRA      4951       1     965     695     782     697
CTETRA      4952       1     576     180    1733     447
CTETRA      4953       1    2637    2616    1727    5256
CTETRA      4954       1    1087    5349    5362    5350
CTETRA      4955       1    1745    4819    4806    4818
CTETRA      4956       1     576    1733    1734    2516
CTETRA      4957       1     342    4799    4798    4811
CTETRA      4958       1     342    4811    4798    4810
CTETRA      4959       1     575     577     568    1160
CTETRA      4960       1    1297     643    1414     385
CTETRA      4961       1     697    1145    2388     698
CTETRA      4962       1    1087    5337    5336    5349
CTETRA      4963       1    2638     697    1145    2388
CTETRA      4964       1    2616    5256    6754    6895
CTETRA      4965       1     697     782    1145     698
CTETRA      4966       1     782     927     698     961
CTETRA      4967       1    1145     927    2388     698
CTETRA      4968       1    2639    1313    2640    2641
CTETRA      4969       1    1087    5348    5361    5349
CTETRA      4970       1    2616    1727    5256    5252
CTETRA      4971       1     636    5342    6912    6911
CTETRA      4972       1    1890    2640    2145    2605
CTETRA      4973       1    1104     521    1105    1894
CTETRA      4974       1    1175     996    1104    1314
CTETRA      4975       1    1312     449     899     183
CTETRA      4976       1    1890    1106    1160    2640
CTETRA      4977       1    1890    1106    1174     568
CTETRA      4978       1    1106    1313    2511    1174
CTETRA      4979       1    1106    1313    2642    2511
CTETRA      4980       1     778    1256    1751     925
CTETRA      4981       1     343     349     359    1255
CTETRA      4982       1    2615    4832    4844    4845
CTETRA      4983       1    1708    2643    2633    2644
CTETRA      4984       1     624    6759     637    4889
CTETRA      4985       1    2541    6937    6938    4824
CTETRA      4986       1     924    1532    1531    1152
CTETRA      4987       1     778    1751     348    1281
CTETRA      4988       1    2645    2646    2647    2648
CTETRA      4989       1     636    6911    6912    5343
CTETRA      4990       1    2446    5149    7036    7037
CTETRA      4991       1    2645    2646    2648    2649
CTETRA      4992       1    2645    2618    2650    1227
CTETRA      4993       1    2498    2651    2652    1987
CTETRA      4994       1    2645    2618    2653    1609
CTETRA      4995       1    2460    6910    6909    5318
CTETRA      4996       1    2645    2618    1609    2654
CTETRA      4997       1    2132    2133     175    1811
CTETRA      4998       1    1714    1860    2630    2627
CTETRA      4999       1    2637    1726    6756    5260
CTETRA      5000       1    2655    6226    6150    6225
CTETRA      5001       1    1244     747     907    1243
CTETRA      5002       1     273     276    1543     754
CTETRA      5003       1    2541    4812    6936    6937
CTETRA      5004       1    2616    2617    5252    5221
CTETRA      5005       1    1744    4790    4802    4803
CTETRA      5006       1    4867    7048    4881    7049
CTETRA      5007       1    1087    5350    5337    5349
CTETRA      5008       1    1491    4825    4837    4838
CTETRA      5009       1    1543    1537     276    2140
CTETRA      5010       1    1745     342    2312    4809
CTETRA      5011       1    1491    6938    4836    4824
CTETRA      5012       1    1474     162    4853    4854
CTETRA      5013       1    1821     484    1667    1258
CTETRA      5014       1    1857    5355    6912    6913
CTETRA      5015       1    1258    1127    1100    1259
CTETRA      5016       1     635    5352    5353    5340
CTETRA      5017       1     484    1271    1820    1667
CTETRA      5018       1    1258    2494    1100    1667
CTETRA      5019       1     226     972     225     227
CTETRA      5020       1    2563    5324    5323    5336
CTETRA      5021       1    1995    5355    5367    5368
CTETRA      5022       1     481    1564     464    1127
CTETRA      5023       1    1087    5348    5349    5336
CTETRA      5024       1     484    1258     834    1667
CTETRA      5025       1     527     716     441     439
CTETRA      5026       1     162    1490    4838    4839
CTETRA      5027       1     432    1898     431     440
CTETRA      5028       1    2570    4859    6941    6940
CTETRA      5029       1     459     825     462     839
CTETRA      5030       1    2541    4812    4813    4800
CTETRA      5031       1    1791    1790     550    2656
CTETRA      5032       1     342    4810    4798    4797
CTETRA      5033       1    1791    1790    2656    1335
CTETRA      5034       1    1101    2479     431    1791
CTETRA      5035       1    7041    4860    4878    4877
CTETRA      5036       1     162    4850    4837    4849
CTETRA      5037       1    1791    2657    2479    1335
CTETRA      5038       1    4862    7043    4880    7044
CTETRA      5039       1    1474    4878    4879    4880
CTETRA      5040       1    1102    1791     551    2657
CTETRA      5041       1    1743    4817    4830    4818
CTETRA      5042       1     147     238     807     676
CTETRA      5043       1    1995    6914    5379    5367
CTETRA      5044       1    1087    5358    1059    5359
CTETRA      5045       1    5382    7061    5381    4875
CTETRA      5046       1     538    6761    6685     623
CTETRA      5047       1    4806    2312    4807    1745
CTETRA      5048       1    1059    5382    5370    5369
CTETRA      5049       1    4863    4862    4880    7044
CTETRA      5050       1     464    1564    1582     451
CTETRA      5051       1     334    1471     599    1270
CTETRA      5052       1    1582    1564    1017    1565
CTETRA      5053       1    1743    2019    2615    4829
CTETRA      5054       1    1582    1662     451    1564
CTETRA      5055       1    1232    1599    2328    1231
CTETRA      5056       1    2570    6939    6940    4848
CTETRA      5057       1    1055     923    1234    1232
CTETRA      5058       1     839    1101    1233    1224
CTETRA      5059       1    2658    1723    1752    2659
CTETRA      5060       1    4889     623    6889    5064
CTETRA      5061       1    1287    2660    2661    2662
CTETRA      5062       1    1285    1290    1287    1286
CTETRA      5063       1    1473    1891    4856    4857
CTETRA      5064       1    4868    4881    7049    4867
CTETRA      5065       1    1473    7051    4870    4869
CTETRA      5066       1    1867    1893    1868    1892
CTETRA      5067       1    4870    7052    4877    4871
CTETRA      5068       1     694     201     654     828
CTETRA      5069       1    4871    4877    6941    7071
CTETRA      5070       1    2570    4859    4858    4871
CTETRA      5071       1    1473    4869    4870    4857
CTETRA      5072       1     735    1287    1357    1700
CTETRA      5073       1    1287    2660    1700    2663
CTETRA      5074       1    1427    2664    2665    2592
CTETRA      5075       1    7052    4877    4871    7071
CTETRA      5076       1    1427    2534    1426    2535
CTETRA      5077       1    4840    2019    4841     162
CTETRA      5078       1    1328    2664    2534    1872
CTETRA      5079       1    2420    4876    5387    5386
CTETRA      5080       1    2034    4596    4598    4301
CTETRA      5081       1    1852    1858    1855    2666
CTETRA      5082       1    1427    2664    2534    2535
CTETRA      5083       1    2420    5375    5387    5388
CTETRA      5084       1    7054    5388    5389    4876
CTETRA      5085       1    2420    5375    5374    5387
CTETRA      5086       1    1427    1872    1439    1441
CTETRA      5087       1    2539    2667    2668    2669
CTETRA      5088       1    1350    1412     221     955
CTETRA      5089       1     760     956     761     762
CTETRA      5090       1    1839    1351    1689    1411
CTETRA      5091       1    5390    6915    7068    4872
CTETRA      5092       1    1297    1298    2670    1973
CTETRA      5093       1    1041    1298    2670    1297
CTETRA      5094       1    7053    5390    7068    4872
CTETRA      5095       1    2671    1836    2672    2258
CTETRA      5096       1    2673    1297    2674     769
CTETRA      5097       1    1062    1297    1298    1041
CTETRA      5098       1    2216    4585    4584    4549
CTETRA      5099       1    1122     937    1125    1126
CTETRA      5100       1    1297     643     865     769
CTETRA      5101       1    2143    6116    6117    6041
CTETRA      5102       1     697    1954    1165    1168
CTETRA      5103       1    1211    2675    2676    1708
CTETRA      5104       1     636    1857    5344    5343
CTETRA      5105       1     623    2426    5063    5064
CTETRA      5106       1    6760    6889    6759    4889
CTETRA      5107       1    1211    1143    2677    2638
CTETRA      5108       1    1882    1881    2136    2678
CTETRA      5109       1    2563    5336    1729    5324
CTETRA      5110       1    2679    2680    2681    2682
CTETRA      5111       1    2683     642    2260    2213
CTETRA      5112       1    1209    1954    1208    1211
CTETRA      5113       1    6953     474    2684    4601
CTETRA      5114       1     795    6952    6953    4603
CTETRA      5115       1    2685    4817    4816    4829
CTETRA      5116       1    1211    2676    2675    1954
CTETRA      5117       1    1211     697    1145    2638
CTETRA      5118       1     481    1127     758    1564
CTETRA      5119       1    1452    1044    1249     957
CTETRA      5120       1    2460    6909    7067    6953
CTETRA      5121       1    1775     537    1204    1203
CTETRA      5122       1     883     882    1042    1044
CTETRA      5123       1    1745    1744    4806    2312
CTETRA      5124       1     212     221     542     537
CTETRA      5125       1     537    1249    1342     503
CTETRA      5126       1    5063    5066    1828     623
CTETRA      5127       1    2686    5194    7070    4900
CTETRA      5128       1     957    1452    1203    1249
CTETRA      5129       1    4665    4786    2538    4787
CTETRA      5130       1     496    4753    4746    4747
CTETRA      5131       1     957     537    1044    1249
CTETRA      5132       1    1491    2687    4834    4835
CTETRA      5133       1    6935     284    7070    4788
CTETRA      5134       1    2685    4828    4829    4816
CTETRA      5135       1    2688    2689    5950    6025
CTETRA      5136       1     623    1828     538    6761
CTETRA      5137       1     128    4789     130     342
CTETRA      5138       1    1204    1351    1776    1412
CTETRA      5139       1     957    1069     955    1627
CTETRA      5140       1    2604    5862    5938    5863
CTETRA      5141       1     363    1226     502    1265
CTETRA      5142       1    1833    1764    1329    2527
CTETRA      5143       1    1762    1137    1833    2565
CTETRA      5144       1    1326    1449    1328    1764
CTETRA      5145       1    1330    1511    1981    2690
CTETRA      5146       1    1833    1330    2691    1329
CTETRA      5147       1     792    6948    4688    6947
CTETRA      5148       1    2692    5194    2686    5196
CTETRA      5149       1    2570    4859    4847    4846
CTETRA      5150       1    1330    1329    2693    2691
CTETRA      5151       1    1326    1328    1329    1764
CTETRA      5152       1     623    1828    6761    5067
CTETRA      5153       1    2312    4796    4797    7037
CTETRA      5154       1     342    6936    4800    6935
CTETRA      5155       1    2312    4796    7037    7036
CTETRA      5156       1    1330    1327    2690    1978
CTETRA      5157       1    2186     767    2694    2695
CTETRA      5158       1    2687    4835    4822    4834
CTETRA      5159       1    2186    1871    2696    2356
CTETRA      5160       1     342    4788    4801    4789
CTETRA      5161       1    2122     769     672    1575
CTETRA      5162       1    2687     342    4810    4811
CTETRA      5163       1     283    6935    7040    4799
CTETRA      5164       1    2685    1490    4828    4816
CTETRA      5165       1    1857    5355    5356    5343
CTETRA      5166       1     623    5066    1828    5067
CTETRA      5167       1    2526    1729    2422    2563
CTETRA      5168       1    2122     673    2294     672
CTETRA      5169       1    2563    5308    5320    5321
CTETRA      5170       1     673    1871    2186    2356
CTETRA      5171       1    2122    2294    2186    2694
CTETRA      5172       1     494    1885     660     767
CTETRA      5173       1    2460    5318    6952    5317
CTETRA      5174       1     872    1322     602     837
CTETRA      5175       1    5307    2212    5308    2563
CTETRA      5176       1    1729     635    5340    5339
CTETRA      5177       1     381     380    1415    1036
CTETRA      5178       1     380     379    1415    1482
CTETRA      5179       1     380     379    2697    1318
CTETRA      5180       1     398       9     469     470
CTETRA      5181       1     623    6888    6760    6889
CTETRA      5182       1    4869    4868    4881    7050
CTETRA      5183       1    2687    4823    4811    4810
CTETRA      5184       1     674    1024     773     616
CTETRA      5185       1    2541    4811    4823    6937
CTETRA      5186       1    2687    4835    6938    4823
CTETRA      5187       1    2570    6940    4847    4859
CTETRA      5188       1     675    1048    1019     890
CTETRA      5189       1     986    1048    1012     675
CTETRA      5190       1    1292    5155    5154    5211
CTETRA      5191       1    2315    5237    5210    5209
CTETRA      5192       1     807     675     676     238
CTETRA      5193       1     807     282     808    1011
CTETRA      5194       1     978    1676    1027     908
CTETRA      5195       1    2526    5342    6911    5330
CTETRA      5196       1    2563    5320    5307    5319
CTETRA      5197       1    1496    1676    1849    1793
CTETRA      5198       1    1676    1114    1634    1849
CTETRA      5199       1    1676    1114     287    1634
CTETRA      5200       1    1857    5356    5344    5343
CTETRA      5201       1    1552    5376    5364    5363
CTETRA      5202       1     623    6760    6888    6761
CTETRA      5203       1    2526    5331    5332    5319
CTETRA      5204       1    1572     802    1574    1566
CTETRA      5205       1    2698     353    4902    5080
CTETRA      5206       1     114     671     367     491
CTETRA      5207       1    1995    5355    5368    5356
CTETRA      5208       1     738    1964     797    1371
CTETRA      5209       1    1207    1859    1209    1861
CTETRA      5210       1    2687    4823    4822    4835
CTETRA      5211       1    4826    4825    1490    4838
CTETRA      5212       1    2687    4823    4810    4822
CTETRA      5213       1    4805    1744    4806    1743
CTETRA      5214       1    1859    2675    2450    1954
CTETRA      5215       1    1297    2674     769     865
CTETRA      5216       1    1297     865    1973    2674
CTETRA      5217       1    1974    1299     866     865
CTETRA      5218       1     865    1297     662     643
CTETRA      5219       1    1491    6939    4836    6938
CTETRA      5220       1     558     868    1041    2247
CTETRA      5221       1     559    1299    1125    2271
CTETRA      5222       1    1974     767     865     866
CTETRA      5223       1     636    5354    6912    5342
CTETRA      5224       1     559    2271    1975    1299
CTETRA      5225       1    1728    5315    5314    5327
CTETRA      5226       1     636    5342    5341    5354
CTETRA      5227       1    2681    2699    2700    2701
CTETRA      5228       1    2465    4578    4583    4577
CTETRA      5229       1    1975    1298    1973    2277
CTETRA      5230       1    1297    1298    1973     865
CTETRA      5231       1    1298    2247    2277    1724
CTETRA      5232       1    2558    1624    2702    2703
CTETRA      5233       1      10     382     669     422
CTETRA      5234       1    2013     869     560     903
CTETRA      5235       1    1745    4832    4820    4819
CTETRA      5236       1     162    4836    4849    4837
CTETRA      5237       1    1743    4829    2615    4830
CTETRA      5238       1    1891    4867    4855    4854
CTETRA      5239       1    2615    4844    4831    4843
CTETRA      5240       1    2162    5242    5212    5211
CTETRA      5241       1    2704    2686    2692    5194
CTETRA      5242       1    1473    4858    4871    2570
CTETRA      5243       1     633     875     560     561
CTETRA      5244       1     425     868     633    1669
CTETRA      5245       1     561     428     633     570
CTETRA      5246       1    2420    4876    5389    5388
CTETRA      5247       1     875    2358     561     570
CTETRA      5248       1    1085    5346    5333    5345
CTETRA      5249       1     875     903    2358     874
CTETRA      5250       1     634    5366    6913    5354
CTETRA      5251       1    2563    5322    5335    5323
CTETRA      5252       1    1254    1817    1256    2317
CTETRA      5253       1    1612    1920    1616    1334
CTETRA      5254       1    1920    2311    2705    1616
CTETRA      5255       1    1122     525     526    1376
CTETRA      5256       1    1891    4842    2615    4841
CTETRA      5257       1    1491    4847    4835    4834
CTETRA      5258       1    1474    4863    4880    4864
CTETRA      5259       1    1745    4820    4821    4808
CTETRA      5260       1    1125    2276    1299    1123
CTETRA      5261       1    2706    2707    2708    2680
CTETRA      5262       1    1123    2276    1378    1591
CTETRA      5263       1    2570    4859    4871    6941
CTETRA      5264       1    2610    6298    6222    6297
CTETRA      5265       1    1122    1688    1125    1124
CTETRA      5266       1    2570    4859    4846    4858
CTETRA      5267       1    1376    1799    1798     660
CTETRA      5268       1    1753    2709    1754    1076
CTETRA      5269       1     601     602     872     499
CTETRA      5270       1    1552    5375    5363    5362
CTETRA      5271       1    1315    1318    1317    1651
CTETRA      5272       1    1317    1658    1316    1320
CTETRA      5273       1     787    1145     782     927
CTETRA      5274       1    5345    5344    1085    5357
CTETRA      5275       1    1753    1658    1076    1754
CTETRA      5276       1    1995    5378    5390    6915
CTETRA      5277       1    2710    2215    2216    4548
CTETRA      5278       1     842    2415    1831    2416
CTETRA      5279       1    2477    2711    2712    2700
CTETRA      5280       1    5377    5378    1552    5365
CTETRA      5281       1     602    1643     600     603
CTETRA      5282       1    1350     225    1408     954
CTETRA      5283       1    2698    4902     950    4901
CTETRA      5284       1    1743    4818    4830    4831
CTETRA      5285       1     984     983     985    1697
CTETRA      5286       1    1473    4881    4877    7051
CTETRA      5287       1     985     860    1322     602
CTETRA      5288       1    2687    4809    4822    4810
CTETRA      5289       1     602     985    1471     837
CTETRA      5290       1    1745    4821    4809    4808
CTETRA      5291       1     458     203     420     376
CTETRA      5292       1    2713    1624    2681    2714
CTETRA      5293       1     279    1417    1595    1640
CTETRA      5294       1    2312    4809    4796    4808
CTETRA      5295       1     317     140     923     830
CTETRA      5296       1    1418     278    1305    1447
CTETRA      5297       1    1503    2580    2702    1504
CTETRA      5298       1    2714    2681    2682    2702
CTETRA      5299       1    1743    4829    4830    4817
CTETRA      5300       1    1744    2685    1490    1743
CTETRA      5301       1     162    2615    2570    1491
CTETRA      5302       1    2019    1743    2685    4829
CTETRA      5303       1     635    5350    5362    5363
CTETRA      5304       1    5313     642    2213    5312
CTETRA      5305       1    2422    5341    5342    5329
CTETRA      5306       1     281    1425     279     683
CTETRA      5307       1    1085    5334    5333    5346
CTETRA      5308       1     280    1011     279    1595
CTETRA      5309       1     635    5341    5353     636
CTETRA      5310       1     279    1417    1640    1507
CTETRA      5311       1    1417    1595    1640    2715
CTETRA      5312       1    1417    1595    2715    1597
CTETRA      5313       1    1085    5332    5344    5345
CTETRA      5314       1     797    1963     672      80
CTETRA      5315       1    1624    2477    1623    2713
CTETRA      5316       1    2212    5311    5310    5323
CTETRA      5317       1     635    5353    5352    5365
CTETRA      5318       1     639    2213    2212    2260
CTETRA      5319       1     738    1371    1370    1964
CTETRA      5320       1    1835     797    1371      79
CTETRA      5321       1     738     670     797    1964
CTETRA      5322       1     738     490    1802    1345
CTETRA      5323       1     775    1428    1674    1382
CTETRA      5324       1    2054    1438    2055    2057
CTETRA      5325       1    1274    1272     780    1182
CTETRA      5326       1     359     360    1580     351
CTETRA      5327       1     359    1255    1579    1581
CTETRA      5328       1    1281    1189    1274     780
CTETRA      5329       1     345     682     678     729
CTETRA      5330       1    4804    4817    4816    1744
CTETRA      5331       1     128    7031    7030    4790
CTETRA      5332       1    2616    6753    6895    6754
CTETRA      5333       1    2312    4809    4797    4796
CTETRA      5334       1     359    1272     360     347
CTETRA      5335       1     345    1751    1256    1254
CTETRA      5336       1    2312    4797    7038    7037
CTETRA      5337       1    2483    1255     348    1581
CTETRA      5338       1     417    5142    5141    5207
CTETRA      5339       1    1708    2633    2634    1711
CTETRA      5340       1     795    6952    4303    6951
CTETRA      5341       1     793    4303    4302    4780
CTETRA      5342       1    2716    6260    6184    6259
CTETRA      5343       1    1728    5328    5316    5315
CTETRA      5344       1    2213    5315    5316    6950
CTETRA      5345       1     678    1921     677    1920
CTETRA      5346       1    1254     348    1818    1255
CTETRA      5347       1    2460    6952    6951    5317
CTETRA      5348       1     841    1226     845    1706
CTETRA      5349       1    5383    7059    7060    4875
CTETRA      5350       1    1728    1729    5326    5325
CTETRA      5351       1     877    1043     882    1365
CTETRA      5352       1     879    1994     880     878
CTETRA      5353       1    1098    1240    1706    1046
CTETRA      5354       1    1365     881    1097    1096
CTETRA      5355       1     885     756     894     893
CTETRA      5356       1    1552     635    5362    5363
CTETRA      5357       1     877    1118    1365     881
CTETRA      5358       1    4874    7057    5385    7058
CTETRA      5359       1    2537    5384    1059    5383
CTETRA      5360       1     445    1255     678    1920
CTETRA      5361       1    5383    5382    4875    7060
CTETRA      5362       1    2316    2717    2324    2325
CTETRA      5363       1    1087    5361    1552    5362
CTETRA      5364       1    1920    1255    2326    2481
CTETRA      5365       1    2483    2500    2326    2481
CTETRA      5366       1    1920    2326    2501    2481
CTETRA      5367       1    5387    4876    7056    5386
CTETRA      5368       1    2537    1059    5369    5382
CTETRA      5369       1    2420    5386    5373    5385
CTETRA      5370       1    2325    2326    2718    2500
CTETRA      5371       1    2537    4873    4875    5381
CTETRA      5372       1    2537    4873    4872    4874
CTETRA      5373       1    1474    4879    4866    4865
CTETRA      5374       1    2408    4878    4861    4860
CTETRA      5375       1    2326    2324    2501    2325
CTETRA      5376       1    4879    4880    7046    4865
CTETRA      5377       1    1254    2326    1255    1818
CTETRA      5378       1    1265    1324    1268     506
CTETRA      5379       1    1473    2570    1891    4857
CTETRA      5380       1    2719    5034    5035    4993
CTETRA      5381       1    1891    4842    4854    4855
CTETRA      5382       1    4833    2687    1745    4821
CTETRA      5383       1    1324    1538     506     500
CTETRA      5384       1     363     362    1363    1324
CTETRA      5385       1     446     844    1334    1332
CTETRA      5386       1     349     358    1603     362
CTETRA      5387       1    2629    2634    2720    2721
CTETRA      5388       1    1873     440    2722    1898
CTETRA      5389       1    2570    2408    1891     162
CTETRA      5390       1    1873    1924     571     982
CTETRA      5391       1    1873    1924    2723     573
CTETRA      5392       1    1473    4869    4868    4881
CTETRA      5393       1    1873    1770    1924     982
CTETRA      5394       1    1744     342    1745    2541
CTETRA      5395       1    1473    4857    4870    4858
CTETRA      5396       1    2541    6936     342    4811
CTETRA      5397       1    1891    4855    4843    4842
CTETRA      5398       1    1745    4820    4808    4807
CTETRA      5399       1    1240     896    1241    2724
CTETRA      5400       1    2687    4821    4834    4822
CTETRA      5401       1    1098    1365    1240     896
CTETRA      5402       1    2629    2725    2634    2721
CTETRA      5403       1    2616    6752    6896    6753
CTETRA      5404       1    1365    1118    1240    1241
CTETRA      5405       1     594     779     780    1182
CTETRA      5406       1    1490    4814    4826    4827
CTETRA      5407       1    2615    4833    4845    4846
CTETRA      5408       1    1144    1145    1146     927
CTETRA      5409       1     927     698    1154    2388
CTETRA      5410       1    1206    1146     787    1184
CTETRA      5411       1    1181    1189     779    1182
CTETRA      5412       1    2726    4618    4617    4298
CTETRA      5413       1     594    1182     780    1275
CTETRA      5414       1    5354     636     634    5353
CTETRA      5415       1    5338    5337    1729    5350
CTETRA      5416       1     635    5352    5351    5364
CTETRA      5417       1    1729    5339    5340    5327
CTETRA      5418       1    1145    2638    1143    1211
CTETRA      5419       1    2420    4876    4872    5389
CTETRA      5420       1    2537    5384    5383    4874
CTETRA      5421       1     877     882     883     255
CTETRA      5422       1    1146     779    1189     926
CTETRA      5423       1     907     109    1027     908
CTETRA      5424       1    1103    1160    1106    1107
CTETRA      5425       1    1753     827    2709     733
CTETRA      5426       1    1070    1910     469    1375
CTETRA      5427       1    2629    2727    2627    2728
CTETRA      5428       1     736     827     694     693
CTETRA      5429       1    1070     469    1910    1076
CTETRA      5430       1     635    5351    5352    5339
CTETRA      5431       1     679    2263    1750    1696
CTETRA      5432       1    1729    5328    5327    5340
CTETRA      5433       1    1690    2546     730    1135
CTETRA      5434       1     128    4792    7032    4791
CTETRA      5435       1    2615    4830    4843    4831
CTETRA      5436       1    2729    1141     276    1142
CTETRA      5437       1    2570    4846    2615    4845
CTETRA      5438       1    2541    2687    4823    4811
CTETRA      5439       1    4817    4816    1744    2685
CTETRA      5440       1    2615    4830    4829    4842
CTETRA      5441       1    4833    1745    2615    4832
CTETRA      5442       1    1891    4845    4844    4857
CTETRA      5443       1    2729     276    1141    1537
CTETRA      5444       1    2729     276    1537    2140
CTETRA      5445       1    1338    2729     608    1341
CTETRA      5446       1    2729     608    1341    2730
CTETRA      5447       1    2729    1338    2731    1343
CTETRA      5448       1    2213    5316    6951    6950
CTETRA      5449       1     794    4303    4780    6951
CTETRA      5450       1    2729    2730    2732    2140
CTETRA      5451       1    1319     964     849    2497
CTETRA      5452       1    5141     417    2446    5149
CTETRA      5453       1     174     694     201      60
CTETRA      5454       1    1450    1207    1861     963
CTETRA      5455       1     847     848    2214    1217
CTETRA      5456       1    2260    2212    2460    2213
CTETRA      5457       1     794    4780    6950    6951
CTETRA      5458       1    2445    5149    4888    7036
CTETRA      5459       1    2733    6161    6085    6160
CTETRA      5460       1     285     848     997    1318
CTETRA      5461       1    2734    2727    2735    2736
CTETRA      5462       1    7067    4601    4602    2407
CTETRA      5463       1     417    5141    7038    5208
CTETRA      5464       1    2721    2737    2736    2727
CTETRA      5465       1    2468    5037    2738    4913
CTETRA      5466       1    2594    4781    4779    4780
CTETRA      5467       1     561    2147     570    2358
CTETRA      5468       1     557     424     569     386
CTETRA      5469       1     569     561    2147     570
CTETRA      5470       1    2460    6951    2683    2213
CTETRA      5471       1     632    1126     650     514
CTETRA      5472       1    2739    5996    5920    5995
CTETRA      5473       1    4881    4869    7051    1473
CTETRA      5474       1    1707    2607    1463     515
CTETRA      5475       1     662     519    1123     660
CTETRA      5476       1     557     388     389     937
CTETRA      5477       1    1791    2656     552    2657
CTETRA      5478       1    2214    1869    1868    2740
CTETRA      5479       1    2741    4442    4460    4459
CTETRA      5480       1    1790    1300    1335    1898
CTETRA      5481       1    1772    1790    2453     435
CTETRA      5482       1    4874    4876    5386    7057
CTETRA      5483       1    1059    5371    5370    5383
CTETRA      5484       1    1562    4937    4929    4933
CTETRA      5485       1     548     550    1790     435
CTETRA      5486       1     517     324     525     328
CTETRA      5487       1     140     838     839     482
CTETRA      5488       1     431    2722     440    1898
CTETRA      5489       1    2288    2742    1916    2743
CTETRA      5490       1    2288    2442    2742    2744
CTETRA      5491       1    2288    2744    2742    2743
CTETRA      5492       1    2288    1511    1424    2744
CTETRA      5493       1    5388    5387    4876    7055
CTETRA      5494       1    2288    2565    1511    2744
CTETRA      5495       1    5384    7058    7059    4874
CTETRA      5496       1    1059    5373    5372    5385
CTETRA      5497       1    4874    5385    7057    5386
CTETRA      5498       1    2288    2442    1942    2742
CTETRA      5499       1    2288     958    1942    1424
CTETRA      5500       1    2745    2746    2734    2626
CTETRA      5501       1    2698    4901     950    6776
CTETRA      5502       1     984    1697     972    1271
CTETRA      5503       1    2368    1401     600    1400
CTETRA      5504       1    1400     489    1056    1865
CTETRA      5505       1    2747    2748    2749    2750
CTETRA      5506       1    2212    5310    5322    5323
CTETRA      5507       1    2212    6944     639    2260
CTETRA      5508       1    2747    1048    2751    2748
CTETRA      5509       1    2312     129    2536    7035
CTETRA      5510       1    2747    1565    2752    2749
CTETRA      5511       1    1744    4804    4803    4816
CTETRA      5512       1    2747    1019    1010    1048
CTETRA      5513       1    2144    6804    6805    2438
CTETRA      5514       1    1012    1748     686    1010
CTETRA      5515       1    2747    1019    1565    1010
CTETRA      5516       1     120     773     450     121
CTETRA      5517       1     241    4949    4950    4944
CTETRA      5518       1    2628    2430    1717    2753
CTETRA      5519       1     226     224    1270     334
CTETRA      5520       1    4879    7047    4866    4865
CTETRA      5521       1    4879    7047    4865    7046
CTETRA      5522       1    4879    4866    7048    4867
CTETRA      5523       1    1822    1820     972    1683
CTETRA      5524       1     761    1090    1823    2485
CTETRA      5525       1     220    1350     954     227
CTETRA      5526       1    1474    4865    4853    4852
CTETRA      5527       1     762     761     757    1823
CTETRA      5528       1     603    1649    2524     985
CTETRA      5529       1    1087    1085    5336    1729
CTETRA      5530       1    1471     985     603    1681
CTETRA      5531       1    1056    2754    1459    2155
CTETRA      5532       1    1056    1802    2755    1865
CTETRA      5533       1     603    2368    2155    1649
CTETRA      5534       1     603    1643    2368    1649
CTETRA      5535       1    1995    5381    5369    5368
CTETRA      5536       1    1729    5338    5326    5325
CTETRA      5537       1    2563    5320    5333    5321
CTETRA      5538       1    1087    1857    1552    1059
CTETRA      5539       1     603    1460    2756    2155
CTETRA      5540       1     633     560     875    2013
CTETRA      5541       1     562    1463     564    1462
CTETRA      5542       1    1085    5359    5346    5358
CTETRA      5543       1    1857    5344    5356    5357
CTETRA      5544       1     562    1463     563     564
CTETRA      5545       1     557     424     388     558
CTETRA      5546       1     557     386     389     388
CTETRA      5547       1     565     988     566     570
CTETRA      5548       1     876     570     633     428
CTETRA      5549       1    1491    4836    4837    4824
CTETRA      5550       1    1745    2312    4807    4808
CTETRA      5551       1     425    1669     426    1041
CTETRA      5552       1    1076    1295    1501    1077
CTETRA      5553       1    2757    1419    2758    1980
CTETRA      5554       1    1077    1501    1466    1499
CTETRA      5555       1    1465    1077    1500    1075
CTETRA      5556       1    1474    4852    4851    4864
CTETRA      5557       1    1474    4880    4862    4878
CTETRA      5558       1    1745    1491    2687    2615
CTETRA      5559       1    4854     162    4853    4841
CTETRA      5560       1    1491    4846    2570    4847
CTETRA      5561       1    1075    1077    1498    1072
CTETRA      5562       1    2717    1921    2759    2760
CTETRA      5563       1    2717    1921    2324    2759
CTETRA      5564       1    2541    4824    4825    4812
CTETRA      5565       1    1491    4837    4825    4824
CTETRA      5566       1    2761    2762    1980    2763
CTETRA      5567       1    1891    4844    4856    4857
CTETRA      5568       1    1978    2764    1980    1979
CTETRA      5569       1    2717    2601    2765    2766
CTETRA      5570       1    2717    2767    2601    2766
CTETRA      5571       1    2144    6825    6806    6805
CTETRA      5572       1    6937    4823    2541    6938
CTETRA      5573       1    2717    2768    2767    2769
CTETRA      5574       1    2541    4813    4812    4825
CTETRA      5575       1    1490    4814    4813    4826
CTETRA      5576       1    2717    2768    2769    2770
CTETRA      5577       1    2615    4834    4833    4846
CTETRA      5578       1     734     733     466    1015
CTETRA      5579       1    1128    1357    1129    1355
CTETRA      5580       1    7050    4881    4869    7051
CTETRA      5581       1     988    2771    1701    2024
CTETRA      5582       1    1473    4869    4856    4868
CTETRA      5583       1    2144    2437    2772    4218
CTETRA      5584       1     566     988    2024     570
CTETRA      5585       1     774    1129    1357    1355
CTETRA      5586       1     569     988     570    2147
CTETRA      5587       1    2422    5329    5328    5341
CTETRA      5588       1     988    1701    2771    2145
CTETRA      5589       1    6768    6769    6880    5109
CTETRA      5590       1     565     988     568     577
CTETRA      5591       1    2420    5376    5389    5377
CTETRA      5592       1    2420    5373    1059    5385
CTETRA      5593       1    1067    1065    1051    1003
CTETRA      5594       1    2144    2772    4222    4218
CTETRA      5595       1    2420    5388    5376    5375
CTETRA      5596       1    1980    1979    2763    2773
CTETRA      5597       1    2774    1620    2775     208
CTETRA      5598       1      85    1007    1003    1004
CTETRA      5599       1     635    5363    5351    5350
CTETRA      5600       1    1051    1065    1007    1003
CTETRA      5601       1     635    5364    5365    5352
CTETRA      5602       1    4829    2019    4828    2685
CTETRA      5603       1    2536    7033    4792    4793
CTETRA      5604       1    1619      99    2774    2776
CTETRA      5605       1    4819    4818    1745    4831
CTETRA      5606       1      85     672    1003      80
CTETRA      5607       1    2777    1641    2778    1778
CTETRA      5608       1      69      66     796     379
CTETRA      5609       1    2779    2780    1170     251
CTETRA      5610       1    2264    1915    2781    1691
CTETRA      5611       1    2264    2779    1749    1904
CTETRA      5612       1    2264    1749    2781    1904
CTETRA      5613       1    1745    2615    4832    4831
CTETRA      5614       1    2264    1918    1915    1780
CTETRA      5615       1    7035    2536    2312    4794
CTETRA      5616       1    2264    2779    2782    1918
CTETRA      5617       1    2121    2470    7039    7040
CTETRA      5618       1    2312    4808    4796    4795
CTETRA      5619       1    2755    2783    2784    2785
CTETRA      5620       1    2755    1345    1572    1571
CTETRA      5621       1    2755    2257    1802    1571
CTETRA      5622       1    2755    1865    2785    2754
CTETRA      5623       1    2786    2775    1620    2787
CTETRA      5624       1    1085    5333    2563    5332
CTETRA      5625       1    1374     590    1392    2788
CTETRA      5626       1    1374     292     590     591
CTETRA      5627       1     591    1450    1451    1191
CTETRA      5628       1    1725    2789    2790     574
CTETRA      5629       1    1725    1314    1311      36
CTETRA      5630       1     648     387     650     899
CTETRA      5631       1     438    1225    2073      38
CTETRA      5632       1     748     754     747     753
CTETRA      5633       1    1725    2790     764     571
CTETRA      5634       1     720      36    1177    1314
CTETRA      5635       1     543     275     274     312
CTETRA      5636       1     488     397     332     600
CTETRA      5637       1     931    5006    4905    5003
CTETRA      5638       1    1059    5370    5357    5369
CTETRA      5639       1     599    2155    1056    1459
CTETRA      5640       1     222     224     226     334
CTETRA      5641       1    1995    1857    1059    1552
CTETRA      5642       1     805     533    1557     803
CTETRA      5643       1     226     483    1271     484
CTETRA      5644       1    2537    5380    4873    5381
CTETRA      5645       1    1059    5372    5371    5384
CTETRA      5646       1    2618    2416    2650    1831
CTETRA      5647       1    7063    5380    4873    5379
CTETRA      5648       1    5381    5380    4873    7062
CTETRA      5649       1    1474    4863    4862    4880
CTETRA      5650       1    2618    2416    2791    2650
CTETRA      5651       1    2618    2653    1609     880
CTETRA      5652       1    1149     926    1144    1147
CTETRA      5653       1    1156    1143    2792    2677
CTETRA      5654       1    1157    1148    2643    1156
CTETRA      5655       1    1348    1157    1148    2643
CTETRA      5656       1    1144    1151    1156    2792
CTETRA      5657       1    4880    4863    7044    7045
CTETRA      5658       1    1582     453     451    1662
CTETRA      5659       1    2408    4862    4849    4861
CTETRA      5660       1    1156    2677    2793    2643
CTETRA      5661       1    5337    1729    5350    1087
CTETRA      5662       1     886     888    1564    1364
CTETRA      5663       1    2260    6942    5307    5308
CTETRA      5664       1     888    1564    1662    1565
CTETRA      5665       1     888    1364     889    2794
CTETRA      5666       1     888    2750     887     897
CTETRA      5667       1     636    1085    1087    1729
CTETRA      5668       1    1728    5325    5326    5313
CTETRA      5669       1    1729    5326    5339    5327
CTETRA      5670       1     888    1565    1662    2795
CTETRA      5671       1     888    1364    2794    2795
CTETRA      5672       1    1729    5326    5338    5339
CTETRA      5673       1     888    2752    2750     897
CTETRA      5674       1    2458    2480    2080    2568
CTETRA      5675       1    1743    2685    4817    1744
CTETRA      5676       1    2078    2458    2080    2456
CTETRA      5677       1    4794    2312    4807    4806
CTETRA      5678       1    2458    2457    2226    2394
CTETRA      5679       1    2144    2437    4248    4259
CTETRA      5680       1     793    2078    2079    2226
CTETRA      5681       1    1745    4806    4819    4807
CTETRA      5682       1    2190    5198    5143    5206
CTETRA      5683       1    2078    2226     793    2796
CTETRA      5684       1     707    2797    1251    2798
CTETRA      5685       1    2570    4845    4857    4858
CTETRA      5686       1    1473    4869    4857    4856
CTETRA      5687       1    2671    1836    1370    1442
CTETRA      5688       1    1371    1370    1964    1836
CTETRA      5689       1    2799    4254    4261    4262
CTETRA      5690       1    1371    1884    1836      79
CTETRA      5691       1    4870    1473    4858    4871
CTETRA      5692       1    1619    1621    1642    1620
CTETRA      5693       1    1219    1218    1371    1442
CTETRA      5694       1     737     738     797    1371
CTETRA      5695       1    1114     287    1218    1391
CTETRA      5696       1     635    5364    5351    5363
CTETRA      5697       1     246     651     251    1170
CTETRA      5698       1    2800    2801    2802    2803
CTETRA      5699       1    5356    1857    5357    5369
CTETRA      5700       1    1552    5364    5377    5365
CTETRA      5701       1    2197    6682    6758    6683
CTETRA      5702       1    1045    1539     753     500
CTETRA      5703       1    6749    5299    6899    6900
CTETRA      5704       1    4878    4862    7043    4880
CTETRA      5705       1     266     748     504     265
CTETRA      5706       1    1423    2802    2804    1396
CTETRA      5707       1    1265     844     363     845
CTETRA      5708       1     543     908     273    1121
CTETRA      5709       1    2570    4845    4858    4846
CTETRA      5710       1    1848    1972    2805    2806
CTETRA      5711       1    1660    2650    2416    1831
CTETRA      5712       1     342    1744    4789    4801
CTETRA      5713       1    1848    2807    1328    2808
CTETRA      5714       1    2615    4831    4844    4832
CTETRA      5715       1    1848    1971    1449    1448
CTETRA      5716       1    1848    1448    1449    1327
CTETRA      5717       1    1552    5377    5364    5376
CTETRA      5718       1    1327    1328    1848    1325
CTETRA      5719       1     549    1102    1101    1791
CTETRA      5720       1    1232    2328    1386    1231
CTETRA      5721       1    1729    5339    5338    5351
CTETRA      5722       1    2070    5198    5144    5143
CTETRA      5723       1    1599    2328    1231    1962
CTETRA      5724       1     462    1582    1231     453
CTETRA      5725       1    2460    6909    6953    5318
CTETRA      5726       1    5308    2212    5309    5321
CTETRA      5727       1     462    1231     546     453
CTETRA      5728       1    2563    5307    5320    5308
CTETRA      5729       1    1059    5372    5359    5371
CTETRA      5730       1    2460    5330    6910    5318
CTETRA      5731       1    1729     636     635    1087
CTETRA      5732       1    6826    2144    6825    4217
CTETRA      5733       1    1232    1599    1595    2328
CTETRA      5734       1     465    2809    2572    1353
CTETRA      5735       1     410     450     936     121
CTETRA      5736       1     547     451     452     453
CTETRA      5737       1    1769     692    1777     690
CTETRA      5738       1    1195    1198     465     451
CTETRA      5739       1     463    1100     465    1353
CTETRA      5740       1    5527    2810    5451    2811
CTETRA      5741       1    1490    4813    4825    4826
CTETRA      5742       1     545     465    1195     555
CTETRA      5743       1    1662     451    1650    1663
CTETRA      5744       1    4804    1744    4805    4817
CTETRA      5745       1     451     465    1100    1259
CTETRA      5746       1     128    4792    7033    7032
CTETRA      5747       1     342    4799    4811    6936
CTETRA      5748       1    1744    4802    4790    4789
CTETRA      5749       1     342    4799    6936    6935
CTETRA      5750       1     336    6110    6185    6186
CTETRA      5751       1    2687    4821    4822    4809
CTETRA      5752       1    2541    4811    6937    6936
CTETRA      5753       1    2505    4315    4314    4590
CTETRA      5754       1      44     984     483     604
CTETRA      5755       1     585    1337     312     542
CTETRA      5756       1    1337    1142    1341     312
CTETRA      5757       1     972    1820    1271    1697
CTETRA      5758       1    1678    1683     972    1697
CTETRA      5759       1     760     882     210     756
CTETRA      5760       1    1350    1412    1413    1409
CTETRA      5761       1     223     543    1121     395
CTETRA      5762       1    7014    2811    5452    5451
CTETRA      5763       1    1365     896     894    1241
CTETRA      5764       1    1365     894    1096    1097
CTETRA      5765       1    4814    1490    4813    4801
CTETRA      5766       1     894     887    2812     895
CTETRA      5767       1    1236     894     889     887
CTETRA      5768       1    2813    4538    4537    4592
CTETRA      5769       1     894    2814     887    1236
CTETRA      5770       1     680    5258    6758    5261
CTETRA      5771       1     894    2812     887    2814
CTETRA      5772       1    2036    4417    4540    4314
CTETRA      5773       1    2815    5871    5947    5872
CTETRA      5774       1     894    1097    1241    2814
CTETRA      5775       1    2816    2467    2817    2738
CTETRA      5776       1     894     889     893    1092
CTETRA      5777       1     894     889     884     893
CTETRA      5778       1     764     514    1126     572
CTETRA      5779       1    1828    5061    5066    5062
CTETRA      5780       1    1103    1312    1174    1106
CTETRA      5781       1    2408    6941    4871    4877
CTETRA      5782       1    2408    6940    6941    4860
CTETRA      5783       1     548    1790     549     433
CTETRA      5784       1     601     366      43     332
CTETRA      5785       1     899     650     764    1174
CTETRA      5786       1    4860    4861    7042    4878
CTETRA      5787       1    4878    4861    7043    4862
CTETRA      5788       1     720    1725    1314     764
CTETRA      5789       1    1122     519    1376    1123
CTETRA      5790       1     627     662     937     422
CTETRA      5791       1    2818    4305    4484    4478
CTETRA      5792       1    4873    5379    7064    7063
CTETRA      5793       1      31     109      33      35
CTETRA      5794       1     526    1405     717     982
CTETRA      5795       1    1918    1906    1909    1905
CTETRA      5796       1    1688     573     572     513
CTETRA      5797       1     513    1688    1126     572
CTETRA      5798       1    4853     162    4852    4840
CTETRA      5799       1    1126     513     514     512
CTETRA      5800       1     572     513     514    1126
CTETRA      5801       1    1376    1321    1379    1799
CTETRA      5802       1    1267    2703    2706    2681
CTETRA      5803       1     526    1924     982     571
CTETRA      5804       1    2811    5451    7014    4563
CTETRA      5805       1    7038    2121    2470    7039
CTETRA      5806       1     520     522     648     764
CTETRA      5807       1    1480    1479    2697    1651
CTETRA      5808       1    1651    1480    1703    2496
CTETRA      5809       1    4814    1744    4802    4815
CTETRA      5810       1    2212    5324    5311    5323
CTETRA      5811       1    1909    1918    1421    2803
CTETRA      5812       1    6944    2260    2212    6943
CTETRA      5813       1    2811     644    5450    4563
CTETRA      5814       1    1729    5350     635    5351
CTETRA      5815       1    1061    1456    1415    1481
CTETRA      5816       1    2819    5960    6036    5961
CTETRA      5817       1    1703    1464    1910    1320
CTETRA      5818       1    4561     644    4564    4563
CTETRA      5819       1    1481    1074    1430    1456
CTETRA      5820       1    1480    2820    1482    1481
CTETRA      5821       1    2377    1672    1671    2334
CTETRA      5822       1    1382     774    1700    1357
CTETRA      5823       1     644    4564    4563    2811
CTETRA      5824       1    1939    1947    1938    2821
CTETRA      5825       1    2822    2811    4292    4293
CTETRA      5826       1     924    1532    1152    1528
CTETRA      5827       1    2823    1928    1531    1256
CTETRA      5828       1    1527     731    1532    1928
CTETRA      5829       1    2824    2427    1304    1516
CTETRA      5830       1      96     443      90     919
CTETRA      5831       1    2420    5388    5387    4876
CTETRA      5832       1     511    1135     614     730
CTETRA      5833       1    5316    2422    2460    5317
CTETRA      5834       1    1087    5360    1086    5359
CTETRA      5835       1    1768    6926    6065    6925
CTETRA      5836       1    5004     943    5002    4995
CTETRA      5837       1    1928     727     729    1738
CTETRA      5838       1    2825    2826    2827    2072
CTETRA      5839       1     359     351    1580     358
CTETRA      5840       1    2501    1920    1921    2326
CTETRA      5841       1    2811    2822    2828    4293
CTETRA      5842       1    2829    4312    4311    4541
CTETRA      5843       1     651    1749    2780    2263
CTETRA      5844       1    1474    4864    4851    4863
CTETRA      5845       1    7045    4880    4864    7046
CTETRA      5846       1    2780    1333     651    1615
CTETRA      5847       1    1490    4826    4838    4839
CTETRA      5848       1     343     445     350     349
CTETRA      5849       1     582     651     679    1169
CTETRA      5850       1     651    2780    1170    1333
CTETRA      5851       1    1690    1169     730    1696
CTETRA      5852       1     651    2780    1615    2263
CTETRA      5853       1    2780    2263    1904    2602
CTETRA      5854       1    2780    1333    2830    2831
CTETRA      5855       1    2811    2832    2810     644
CTETRA      5856       1    2833    2834    2835    2836
CTETRA      5857       1    7070    2837    7029     131
CTETRA      5858       1    2811    5450     644    2810
CTETRA      5859       1    1995    1857    1552     634
CTETRA      5860       1    2782    2831    2779    1904
CTETRA      5861       1    2563    5333    5334    5321
CTETRA      5862       1    4289    1908    4290    4455
CTETRA      5863       1    2780    2779    1170    1333
CTETRA      5864       1    2541    4813    4801    4800
CTETRA      5865       1     836     984     985    1471
CTETRA      5866       1    1664    1100    1353    2494
CTETRA      5867       1    1231     838     839    1055
CTETRA      5868       1    1744    4791    4804    4792
CTETRA      5869       1     430     461     442     825
CTETRA      5870       1    1789     833    1353     832
CTETRA      5871       1     833    1353     832     714
CTETRA      5872       1    1745    4831    4832    4819
CTETRA      5873       1    1744    4815    4803    4802
CTETRA      5874       1    5312    2213    2212     639
CTETRA      5875       1    2832    2838     644    2811
CTETRA      5876       1     714    2572     833    1353
CTETRA      5877       1     411     110     907     109
CTETRA      5878       1    2460    6951    5316    5317
CTETRA      5879       1    2834    2836    2071    2839
CTETRA      5880       1    4539    2035    4540    4590
CTETRA      5881       1    2613    5035    5041    7034
CTETRA      5882       1    2376    6114    6113    6189
CTETRA      5883       1    6114    2840    2841    2842
CTETRA      5884       1     535    2843    4710    4711
CTETRA      5885       1    1132    1133    1526    2531
CTETRA      5886       1    4590    2505    2036    4314
CTETRA      5887       1      96    1202    1671    1132
CTETRA      5888       1    2312    4807    4795    4794
CTETRA      5889       1    1136    2835    2844    1133
CTETRA      5890       1    2845     202    2846     374
CTETRA      5891       1    2827    2826    2847    2834
CTETRA      5892       1    2683    2158    6953    7067
CTETRA      5893       1    1136    2533    2531    2530
CTETRA      5894       1    1132    1135    2530    1489
CTETRA      5895       1    1136    2844    2848    1739
CTETRA      5896       1     486    4913    7032    7033
CTETRA      5897       1    2406    4315    6942    6943
CTETRA      5898       1     510    1133    1136    1739
CTETRA      5899       1    2849     609     608     300
CTETRA      5900       1    2834    2072    2839    2071
CTETRA      5901       1    2671    2850    2258    2851
CTETRA      5902       1    2852    2853    2851    1573
CTETRA      5903       1    2853    1573    2852    2854
CTETRA      5904       1    1744    4805    4792    4804
CTETRA      5905       1    1491    4847    6939    4835
CTETRA      5906       1    2855    6693    6769    6694
CTETRA      5907       1    2671    2856    2857    2182
CTETRA      5908       1     342    4800    4801    4788
CTETRA      5909       1    2853    2858    2182    2859
CTETRA      5910       1    6948     642    2213    5313
CTETRA      5911       1    2853    2039    2858    2859
CTETRA      5912       1    2212    5309    5322    5310
CTETRA      5913       1    2856    2853    2182    2671
CTETRA      5914       1    2853    2860    2671    2856
CTETRA      5915       1    4711     535     532    4715
CTETRA      5916       1    2853    2858    2860    2856
CTETRA      5917       1     254    1269    2476    2472
CTETRA      5918       1    1059    5359    5358    5371
CTETRA      5919       1    7030     131     130    7029
CTETRA      5920       1    1203     253    1623     254
CTETRA      5921       1    1087    5348    5360    5361
CTETRA      5922       1    5318    2460    5330    5317
CTETRA      5923       1    1085    5334    5347    5335
CTETRA      5924       1    1337     537    1342    1142
CTETRA      5925       1     883     255    1452     879
CTETRA      5926       1    1059    5358    5357    5370
CTETRA      5927       1    1285     829     733    2709
CTETRA      5928       1     696     654     698     828
CTETRA      5929       1    2019    2615     162    1490
CTETRA      5930       1    6769    5085    6770    6879
CTETRA      5931       1     694     654     696     828
CTETRA      5932       1     162    4839    4851    4852
CTETRA      5933       1    1833    2623    1329    2691
CTETRA      5934       1    2834    2827    2861    2847
CTETRA      5935       1    1325    2862    1329    2863
CTETRA      5936       1    1329    1847    2567    2862
CTETRA      5937       1    2019    1490    4839    4827
CTETRA      5938       1    2563    5334    5322    5321
CTETRA      5939       1    4714    5454    4715     532
CTETRA      5940       1    2864    2865    6021    6022
CTETRA      5941       1    2866    2551    4419    2867
CTETRA      5942       1    2868    4413    4415    4412
CTETRA      5943       1    1329    2567    1847    2693
CTETRA      5944       1    1329    2863    2567    2507
CTETRA      5945       1    2563    5323    5335    5336
CTETRA      5946       1    1329    2507    2527    2863
CTETRA      5947       1    1232    2328    1595    1250
CTETRA      5948       1    1232    2327     702    1309
CTETRA      5949       1    1891    4856    4843    4855
CTETRA      5950       1    1744    4791    4790    4803
CTETRA      5951       1    2615    4832    4845    4833
CTETRA      5952       1    1417     706    2715    1640
CTETRA      5953       1     279    1648    1595    1011
CTETRA      5954       1     838    1599    1582    1017
CTETRA      5955       1    1490    4816    4815    4828
CTETRA      5956       1     620    1417    1507     706
CTETRA      5957       1     471    4590    4589    4602
CTETRA      5958       1    1743    4817    4818    4805
CTETRA      5959       1     535    7016    4292    5453
CTETRA      5960       1    1491    6938    4835    6939
CTETRA      5961       1    1599    1595    1648    1011
CTETRA      5962       1    2686    7029    4900    7070
CTETRA      5963       1    2869    2719    2870    2613
CTETRA      5964       1    1891    4841    4854    4842
CTETRA      5965       1    1078    1053    2864    1040
CTETRA      5966       1    1743    4817    2685    4829
CTETRA      5967       1     380     379    1482    2697
CTETRA      5968       1    4715    5454    7016     535
CTETRA      5969       1    1743    2615    1745    4831
CTETRA      5970       1    1608    5030    5033    5031
CTETRA      5971       1      12     627     669      74
CTETRA      5972       1    1078    1068    2864    1052
CTETRA      5973       1     285      66    1318     997
CTETRA      5974       1    1086    5359    5360    5347
CTETRA      5975       1    1416    1414    1067     769
CTETRA      5976       1     382     669     643     768
CTETRA      5977       1    1416     382     769     768
CTETRA      5978       1    2864    1040    6096     700
CTETRA      5979       1    4278    6798    6832    2871
CTETRA      5980       1    1086    5360    5348    5347
CTETRA      5981       1      68      85      69      66
CTETRA      5982       1     640    4412    6945    6946
CTETRA      5983       1     381     426    2872    1041
CTETRA      5984       1     833    2873    1789    2809
CTETRA      5985       1    1552    5374    5362    5361
CTETRA      5986       1    2563    5335    5322    5334
CTETRA      5987       1    1552    5365     635    5364
CTETRA      5988       1    2874    4287    4286    4460
CTETRA      5989       1    2555    6944    6945    4415
CTETRA      5990       1     833    2875    1789    2873
CTETRA      5991       1     833    2876     435    1718
CTETRA      5992       1     833     435    2876    2572
CTETRA      5993       1    2868    4415    6945    4412
CTETRA      5994       1     715     981    1719    1323
CTETRA      5995       1    1988    1165    1316    2451
CTETRA      5996       1    2019    4827    4840    4828
CTETRA      5997       1    1165    1316    2451     964
CTETRA      5998       1     515     513     514    2877
CTETRA      5999       1    1206    1212    1211    1143
CTETRA      6000       1    1474    4853    4866    4854
CTETRA      6001       1    1206     787     697    1208
CTETRA      6002       1    1165    1316     827    1166
CTETRA      6003       1    2837    5130    7029    7030
CTETRA      6004       1    5347    1085    1086    5359
CTETRA      6005       1    7059    4874    4875    5383
CTETRA      6006       1    2878    5025    5030    5031
CTETRA      6007       1    1745    2312    4808    4809
CTETRA      6008       1    2879    5998    5923    5922
CTETRA      6009       1    1729    5324    5337    5325
CTETRA      6010       1     646     715     833     714
CTETRA      6011       1     454     465     452     548
CTETRA      6012       1    1729    5336    5337    5324
CTETRA      6013       1    7029     130     283     131
CTETRA      6014       1     914    1780    1485     251
CTETRA      6015       1     333     499     601     332
CTETRA      6016       1     454     457     838    1582
CTETRA      6017       1    4900    7029    2686    5130
CTETRA      6018       1    2871    2880    6798    6723
CTETRA      6019       1     936     773    1138     616
CTETRA      6020       1    1490    4815    4814    4827
CTETRA      6021       1     773    1138     616     617
CTETRA      6022       1     365     397     488     530
CTETRA      6023       1    1085    5334    5346    5347
CTETRA      6024       1     140     808     838     457
CTETRA      6025       1    1934    1532    2881    2882
CTETRA      6026       1    2883    2881    1928    2882
CTETRA      6027       1    2881    1928    2882    1532
CTETRA      6028       1    2019    4840    4827    4839
CTETRA      6029       1    4278    2107    2880    2871
CTETRA      6030       1    2881    1934    1155    1528
CTETRA      6031       1    1202     961     960     652
CTETRA      6032       1     924    1527     731    1532
CTETRA      6033       1    2536    7034    7033    4793
CTETRA      6034       1     960    1239    1202    1526
CTETRA      6035       1    1527    2884    1937    1133
CTETRA      6036       1    1532    1934    1527    2882
CTETRA      6037       1    6946    5311     639    5312
CTETRA      6038       1    1527    1937    2884    2882
CTETRA      6039       1     961    1527    1935    1239
CTETRA      6040       1    2885    4457    4440    4429
CTETRA      6041       1     192    2877    2886    2887
CTETRA      6042       1    2537    5384    4874    5385
CTETRA      6043       1    2888    5557     107     105
CTETRA      6044       1    5384    4874    5385    7058
CTETRA      6045       1    1312     899     449    1174
CTETRA      6046       1     907    1244    1025    1026
CTETRA      6047       1    1543    1539    1244     747
CTETRA      6048       1    1744    4805    4793    4792
CTETRA      6049       1    1026    1244    1025    1275
CTETRA      6050       1    2212    5324    5312    5311
CTETRA      6051       1     907     908    1027    1793
CTETRA      6052       1     513    2889    2877    2887
CTETRA      6053       1    1890     568    2145    1160
CTETRA      6054       1     513    2877    2889     574
CTETRA      6055       1    2871    2107    2880    2890
CTETRA      6056       1     747    1543    1243    1244
CTETRA      6057       1    1811     178    2140     275
CTETRA      6058       1     747     754    1543    1539
CTETRA      6059       1     795    4303    6952    4603
CTETRA      6060       1    1026     747     907    1244
CTETRA      6061       1     907    1793     273     908
CTETRA      6062       1    2871    6832    4273    6799
CTETRA      6063       1    1768    6925    6140    6924
CTETRA      6064       1     417    5141    5208    5207
CTETRA      6065       1    1811    2140     175    2132
CTETRA      6066       1     536     207     265     900
CTETRA      6067       1    5983    2891    1906    6058
CTETRA      6068       1    2212    1728    5312    5324
CTETRA      6069       1    2132    1779    2133    1244
CTETRA      6070       1    1243    1027    1675    1793
CTETRA      6071       1    1243    2134    1793    1675
CTETRA      6072       1    1494    4896    4895    5234
CTETRA      6073       1    1257    1127    1259    1261
CTETRA      6074       1    2239    5017    2241    5007
CTETRA      6075       1    1744    4806    1743    1745
CTETRA      6076       1    2892    1263    1262    1822
CTETRA      6077       1    1257     759    1260    1262
CTETRA      6078       1    2313    4911    5140    4912
CTETRA      6079       1    6750    6751    6898    5290
CTETRA      6080       1    2593    4781    4301    4300
CTETRA      6081       1     417    5142    5149    5141
CTETRA      6082       1    6750    6749    5299    6899
CTETRA      6083       1     464    1650     451    1259
CTETRA      6084       1     479     480    1258     484
CTETRA      6085       1    2393    4684    4288    4685
CTETRA      6086       1    1171    5775    5776    5700
CTETRA      6087       1    2893    5992    6067    6068
CTETRA      6088       1     885    1098     890     896
CTETRA      6089       1    1935    2391    1936    1934
CTETRA      6090       1    1506    4687    6948    4666
CTETRA      6091       1    2841    6114    6115    6039
CTETRA      6092       1    1935    1239    1936    2390
CTETRA      6093       1    1527    1528    1935    1934
CTETRA      6094       1    2240    2894     950    2895
CTETRA      6095       1    1527    1239    1937    1934
CTETRA      6096       1    2386    1935     961    1154
CTETRA      6097       1    1935     961    1239    2390
CTETRA      6098       1    2057    2896     656    2487
CTETRA      6099       1    2054    1428    1434    2230
CTETRA      6100       1    2897    5193    5192    5205
CTETRA      6101       1    2897    7040    5193    5205
CTETRA      6102       1    1287    1700    1356    1357
CTETRA      6103       1    2054    2230     775    1428
CTETRA      6104       1    2054    1428     775    1438
CTETRA      6105       1    1287    1700    1740    2663
CTETRA      6106       1    1437    2488    2383    1672
CTETRA      6107       1    1437    1438    1672    1382
CTETRA      6108       1    1439    1438    1382    1428
CTETRA      6109       1    2866    4419    4412    4418
CTETRA      6110       1    1382    1437    1438    1439
CTETRA      6111       1    1435    2488    2383    1437
CTETRA      6112       1    2055    1435    1438    2488
CTETRA      6113       1     654     652    1202     201
CTETRA      6114       1    2573    6076    6077    6001
CTETRA      6115       1     913    1915    1691    1916
CTETRA      6116       1     280    1595     278     922
CTETRA      6117       1    2573    6077    6002    6001
CTETRA      6118       1     913    1135    1486    1692
CTETRA      6119       1    6674    1032    6675    6750
CTETRA      6120       1    2867    4428    4418    4455
CTETRA      6121       1    1690     730    2546    1696
CTETRA      6122       1     731     925    1928     727
CTETRA      6123       1    2240    6779    5018    5016
CTETRA      6124       1    2556    6077    6078    6002
CTETRA      6125       1     913    1137    1916    1692
CTETRA      6126       1     790    1359    1332    1170
CTETRA      6127       1     190     192    1707    2515
CTETRA      6128       1     790    1359    1659    1358
CTETRA      6129       1    1359    1358    2898    1659
CTETRA      6130       1    2817    5039    4909    4910
CTETRA      6131       1    6473    2899    6474    2900
CTETRA      6132       1    2241    5008    5012    5007
CTETRA      6133       1    1359    1332    1170    2779
CTETRA      6134       1    1332     843    2901    2341
CTETRA      6135       1    1359    2902    1912    2341
CTETRA      6136       1    1359    1912    1660    2341
CTETRA      6137       1    1429    1438    1428    1434
CTETRA      6138       1    2240    2894    5014    5019
CTETRA      6139       1     775    1428    2230    2229
CTETRA      6140       1    1357    1674    1382     774
CTETRA      6141       1    1206    1183     315     963
CTETRA      6142       1    2817    5039    4910    4911
CTETRA      6143       1    2313    4911    4910    5140
CTETRA      6144       1    2036    4313    4540    4417
CTETRA      6145       1    1925    1202    1671    1518
CTETRA      6146       1     915     579     988    1355
CTETRA      6147       1     774    1701    1737    1698
CTETRA      6148       1    1673    2516    1381    1636
CTETRA      6149       1    2380    5060    2903    5056
CTETRA      6150       1     471    4539    4589    4590
CTETRA      6151       1    4590    2904     471    4539
CTETRA      6152       1    5014    2240    2241    2894
CTETRA      6153       1      95    1437    1439    1441
CTETRA      6154       1    2905    5961    5962    5886
CTETRA      6155       1     576    1733    2516    1158
CTETRA      6156       1    2906    6689    6690    6614
CTETRA      6157       1     174     732     694     733
CTETRA      6158       1    2738    4911    5037    5039
CTETRA      6159       1    2270    5001    5009    5013
CTETRA      6160       1    2907    2764    1959    1958
CTETRA      6161       1    1491    4837     162    4838
CTETRA      6162       1    1135    1486    2530    1489
CTETRA      6163       1    1135    2625    1486    1692
CTETRA      6164       1    1146    1189    1184    1157
CTETRA      6165       1    1181    1189    1182    1193
CTETRA      6166       1    2469    5040    7033    5041
CTETRA      6167       1    1751    1531     925    1256
CTETRA      6168       1     499     600    1643    1401
CTETRA      6169       1     430     431     438     440
CTETRA      6170       1    2540    4687    4666    4667
CTETRA      6171       1    2908    2909    2382    2910
CTETRA      6172       1     764     650     514    2790
CTETRA      6173       1     385    1297    1041    1414
CTETRA      6174       1     288    1027    1676    1496
CTETRA      6175       1     670     672     797    1963
CTETRA      6176       1    2035    4541    4313    4312
CTETRA      6177       1     670    1835    2354    1963
CTETRA      6178       1    2146    2911    2912    5185
CTETRA      6179       1     489     494     490    1871
CTETRA      6180       1    2913    6607    6531    6606
CTETRA      6181       1     494     864    2186     767
CTETRA      6182       1     671     673     864     672
CTETRA      6183       1    1045     504     754    1141
CTETRA      6184       1    1538    1537    1141    1045
CTETRA      6185       1    1324    2914    1603    1268
CTETRA      6186       1     363     841    1226     845
CTETRA      6187       1    5408    6970    6971    4361
CTETRA      6188       1    2062    5482    1057     107
CTETRA      6189       1     789     844     446     790
CTETRA      6190       1    2915    2916    2917    2918
CTETRA      6191       1    2919    5634    5635    5559
CTETRA      6192       1    1266     502    1267    1269
CTETRA      6193       1    2888    5483    5558    5559
CTETRA      6194       1    2915    2920    1951    1952
CTETRA      6195       1    1983    1501    1984    1470
CTETRA      6196       1    1754    1076    1501    1464
CTETRA      6197       1    2102    1008    2921    5404
CTETRA      6198       1    1980    1424    2744    2442
CTETRA      6199       1    1658    1076    1754    1910
CTETRA      6200       1    1658    1754    1320    1910
CTETRA      6201       1    1983    1166    1754    1320
CTETRA      6202       1    2922    5632    5708    5633
CTETRA      6203       1    1166    1658    1754    1320
CTETRA      6204       1    1057    5406    5481    5482
CTETRA      6205       1     677    1615    1921    2601
CTETRA      6206       1    1920    2923    2705    2311
CTETRA      6207       1    1274    1281     780     348
CTETRA      6208       1    5407    1057    6969    4361
CTETRA      6209       1    5408    6971    4354    4361
CTETRA      6210       1    2063    5409    5485    5410
CTETRA      6211       1     343     348     359     347
CTETRA      6212       1     344     678     345     682
CTETRA      6213       1     359    1579     349     358
CTETRA      6214       1    1920    2923    2405    2481
CTETRA      6215       1    1255    2481    2405    2480
CTETRA      6216       1    2483    2326    1255    2481
CTETRA      6217       1    1511    2690    1980    1981
CTETRA      6218       1    1511    1448     621    1512
CTETRA      6219       1    5153    2924    4897    4898
CTETRA      6220       1    6758    5258    6891    5261
CTETRA      6221       1    1485    1942    1915    1916
CTETRA      6222       1    1762    1448    1511    2690
CTETRA      6223       1    1066    1963    1575    2294
CTETRA      6224       1     670     673    2355    1802
CTETRA      6225       1     332     499     487     600
CTETRA      6226       1    1713     668    1088    2925
CTETRA      6227       1    1397    5291    5276    5290
CTETRA      6228       1    2895    2302    6703    6778
CTETRA      6229       1      66     796     379    1318
CTETRA      6230       1    2926    2893    2927    5991
CTETRA      6231       1    1726    5260    5259    5262
CTETRA      6232       1     395    1121    1383     908
CTETRA      6233       1     498    1645    1321    1799
CTETRA      6234       1     461     548     435     714
CTETRA      6235       1     996     521    1311      36
CTETRA      6236       1    1175    1177     996    1314
CTETRA      6237       1    2928    6608    6533    6532
CTETRA      6238       1     996    1138    1551    1177
CTETRA      6239       1    2913    6607    6532    6531
CTETRA      6240       1    6754    6894    6895    5256
CTETRA      6241       1     450     996    1177    1138
CTETRA      6242       1    2929    5091    5042    4894
CTETRA      6243       1    6757    5262    5261    6892
CTETRA      6244       1     996      36    1177    1551
CTETRA      6245       1    6756    6893    5262    6892
CTETRA      6246       1    2903    5061    5057    5056
CTETRA      6247       1    1297    1041    1414    2670
CTETRA      6248       1     661     866     767     660
CTETRA      6249       1    2930    4393    4319    4394
CTETRA      6250       1    2380    5059    5055    5058
CTETRA      6251       1    6757    6892    5261    6891
CTETRA      6252       1     461     465     548     714
CTETRA      6253       1    1175     720     721    1177
CTETRA      6254       1     471    4588    4601    4589
CTETRA      6255       1     540    6684    6683    6759
CTETRA      6256       1     680    2197    6682    6758
CTETRA      6257       1     661     660     662     866
CTETRA      6258       1    1974    2296     865     767
CTETRA      6259       1    1041    2872    2670    2931
CTETRA      6260       1     875     570     874    2358
CTETRA      6261       1     381    1041    2872    1414
CTETRA      6262       1     643    1414     385     382
CTETRA      6263       1    1297    2673    2674    1973
CTETRA      6264       1    1041    2872    2931    1669
CTETRA      6265       1     559    1975    1724    1298
CTETRA      6266       1     413    4355    4360    4362
CTETRA      6267       1    6968    5405    6967    4364
CTETRA      6268       1    2076    4356    4362    4363
CTETRA      6269       1    1359    2831    1332    2779
CTETRA      6270       1    2341    2650    2646    2791
CTETRA      6271       1    1600    1333    1332    1613
CTETRA      6272       1     107    5481    5557    5482
CTETRA      6273       1    1359    1659    2779    1170
CTETRA      6274       1    1363    2399    1600    1601
CTETRA      6275       1     844    1601     843    1227
CTETRA      6276       1     790     844    1332     843
CTETRA      6277       1    2076    4355    4362    4356
CTETRA      6278       1    1122    1125    1688    1126
CTETRA      6279       1    1688    1125     512    1126
CTETRA      6280       1    1125    1124    2932    2276
CTETRA      6281       1    5403    4358    6965    6966
CTETRA      6282       1    1125    2271    2932    2933
CTETRA      6283       1    5402    4350    6964    6965
CTETRA      6284       1    5473    2172    5474    5549
CTETRA      6285       1    1125    2933    1352    2271
CTETRA      6286       1     559    2271    1125    1352
CTETRA      6287       1    1317    1651    1318    1479
CTETRA      6288       1    1317    1319    1652    1320
CTETRA      6289       1    1874    1409    2934    2935
CTETRA      6290       1    6158    1178     800     799
CTETRA      6291       1    1319     848    2495    2214
CTETRA      6292       1     965    1165    1208     964
CTETRA      6293       1    1201    1196    2224    1661
CTETRA      6294       1     978    1027     311     109
CTETRA      6295       1     181     734     579    1355
CTETRA      6296       1    1166    1316     827    1658
CTETRA      6297       1    2016    4683    4286    4287
CTETRA      6298       1     916    1658     827    1316
CTETRA      6299       1    1317     470     916    1658
CTETRA      6300       1    1392    1220    2788     590
CTETRA      6301       1    1374    2161    2936    2429
CTETRA      6302       1     591    1191    2937     592
CTETRA      6303       1     292    1392     291     847
CTETRA      6304       1    1374    2938    2788    1716
CTETRA      6305       1    1676    1813    1383    1849
CTETRA      6306       1     620     281    1425     279
CTETRA      6307       1    1250    1387    2327    1386
CTETRA      6308       1    2655    6226    6227    6151
CTETRA      6309       1    1507     685    2786    1640
CTETRA      6310       1    2939    1200    2224    1201
CTETRA      6311       1    5196    4898    2924    5153
CTETRA      6312       1    4898    2924    4897    5134
CTETRA      6313       1    1641     279     686    2940
CTETRA      6314       1     553    1653    1201    1668
CTETRA      6315       1     279    1640    2940    1641
CTETRA      6316       1     373    6766    6767    6691
CTETRA      6317       1     279    1648    2940    1640
CTETRA      6318       1     708    1507    1640     706
CTETRA      6319       1    1862      83     390      78
CTETRA      6320       1      78    1862    1007    1827
CTETRA      6321       1      85     796    1007    1004
CTETRA      6322       1     672    1575      80    1963
CTETRA      6323       1      68     391     383     672
CTETRA      6324       1      80    2439    1065    1007
CTETRA      6325       1    1862      80    2439      79
CTETRA      6326       1    2941    2240    2241    2302
CTETRA      6327       1    2942    5207    5203    5206
CTETRA      6328       1    1081    1639    2664    2592
CTETRA      6329       1     373    6768    6767    5098
CTETRA      6330       1    2596    2197     680    2245
CTETRA      6331       1     680    6758     637    2197
CTETRA      6332       1    1628    1629     862    1639
CTETRA      6333       1    1083    1081    2067    1381
CTETRA      6334       1    1639    1637    1638    1636
CTETRA      6335       1    1674    1673    1439    1732
CTETRA      6336       1    2943    5142    5148    5149
CTETRA      6337       1    2067    1081    1872    2592
CTETRA      6338       1     778     925     729    1256
CTETRA      6339       1    2944    5202    5199    5198
CTETRA      6340       1     727     730    1738     510
CTETRA      6341       1     510    1132      97    1135
CTETRA      6342       1     345    1254    1256     678
CTETRA      6343       1     246    1170     446     651
CTETRA      6344       1     924     927     653     961
CTETRA      6345       1     555    1196     556    2945
CTETRA      6346       1     806    1111    1555    1567
CTETRA      6347       1    2946    4983    4982    4981
CTETRA      6348       1    1566    1391    1111    1568
CTETRA      6349       1    1281     348    1856    1818
CTETRA      6350       1    1187    1189    1181    1192
CTETRA      6351       1    1206    1145    1146    1143
CTETRA      6352       1    2239    4914    5016    5007
CTETRA      6353       1    1144    1156    1146    1143
CTETRA      6354       1    2947    4954    4966    4955
CTETRA      6355       1    1144    1156    1151    1148
CTETRA      6356       1    2809    2873    2948    2250
CTETRA      6357       1    1147    1149    1346    1148
CTETRA      6358       1    6783    6865    6866    4976
CTETRA      6359       1    2949    2947    2950    2951
CTETRA      6360       1    1146     927     779     926
CTETRA      6361       1    1358     788    1359    1660
CTETRA      6362       1     975    2290    2241    2952
CTETRA      6363       1     790    1359     788     843
CTETRA      6364       1    1332    1333    2831    1613
CTETRA      6365       1    2953    4961    4970    4963
CTETRA      6366       1    2176    6487    6486    6562
CTETRA      6367       1    2050    4947    4958    4959
CTETRA      6368       1     250    1617    1659     251
CTETRA      6369       1    1655    1201    2227    2939
CTETRA      6370       1    2719    5035    2613    2059
CTETRA      6371       1    1918    2779    2898    1617
CTETRA      6372       1     250     790    1659    1358
CTETRA      6373       1    1543    2140     276     275
CTETRA      6374       1     273    1813    1121     908
CTETRA      6375       1     923    1232     702    1308
CTETRA      6376       1    1597    1305    2954    1418
CTETRA      6377       1    1763     862    1303    2464
CTETRA      6378       1    1447    1448    1763    1971
CTETRA      6379       1    1447    2954    2464    1305
CTETRA      6380       1    1198    2227    1201    1200
CTETRA      6381       1    1526    1938    2378    2821
CTETRA      6382       1    1751    1819    1531    1817
CTETRA      6383       1    1256     678     729     345
CTETRA      6384       1    2767    1817    2317    2955
CTETRA      6385       1    2501    2325    2010    2500
CTETRA      6386       1    1738    1256    2317     729
CTETRA      6387       1    1256    2955    2823    2956
CTETRA      6388       1    2957    5128    5138    5129
CTETRA      6389       1    2467    5038    5036    5039
CTETRA      6390       1    1738    1928    1256     729
CTETRA      6391       1    1928    1531    1256     925
CTETRA      6392       1    2870    5033    5041    5034
CTETRA      6393       1    1907    1912    1905    2902
CTETRA      6394       1    1912    1660    1914    1970
CTETRA      6395       1     373    5098    6767    5048
CTETRA      6396       1    1912    1913    1907    1407
CTETRA      6397       1    1912    1913     405    1907
CTETRA      6398       1    1813    1911    1121    1383
CTETRA      6399       1    2219    4941    4926    4940
CTETRA      6400       1    1557    1689     313     542
CTETRA      6401       1    4257    4250    2958    4249
CTETRA      6402       1    1557    1556    1911     805
CTETRA      6403       1     803    1383    1556    1114
CTETRA      6404       1    1114    1383    1556    1849
CTETRA      6405       1    1003      80     672    1575
CTETRA      6406       1     978    1676     908    1383
CTETRA      6407       1    1676    1849    1383    1114
CTETRA      6408       1    2959    4270    4271    6853
CTETRA      6409       1     291    1219    1220    1221
CTETRA      6410       1    2960    6854    4939    6853
CTETRA      6411       1    2175    1110    1446    1115
CTETRA      6412       1    1115    1443    1444    1398
CTETRA      6413       1    1399    2175    1398    2174
CTETRA      6414       1    1114    1115    1399    1446
CTETRA      6415       1    1446    1115    1399    2175
CTETRA      6416       1    6795    6836    6794    4269
CTETRA      6417       1    1486     852     861    1833
CTETRA      6418       1    6793    6837    7066    6856
CTETRA      6419       1    1560    4938    4939    4927
CTETRA      6420       1     730     682    1738    1750
CTETRA      6421       1     159    4946    4947    4941
CTETRA      6422       1     913    1137    1692    1486
CTETRA      6423       1    1690    1692    1691    1695
CTETRA      6424       1    1690    1695    1694    2625
CTETRA      6425       1     914    2264    1691    1915
CTETRA      6426       1    6790    6858    6859    4973
CTETRA      6427       1    1833    2565    1137    1692
CTETRA      6428       1    2386    1154     698    2388
CTETRA      6429       1     466     469     468    1070
CTETRA      6430       1     988     577    1701    2145
CTETRA      6431       1    1317     380    1479    1318
CTETRA      6432       1     135     159    4941    4946
CTETRA      6433       1    6190    2842    6114    6115
CTETRA      6434       1    1354    1355     735    1357
CTETRA      6435       1     988     577    2145     568
CTETRA      6436       1    6809    6822    4235    6821
CTETRA      6437       1    1206    1212    1184    1210
CTETRA      6438       1    2961    2962    2963    2964
CTETRA      6439       1     697     698    2388    1168
CTETRA      6440       1    1859    1208    1165     964
CTETRA      6441       1     315    1451    1183    1284
CTETRA      6442       1    1346    1525    1149    1815
CTETRA      6443       1    1347    1187    1348    1721
CTETRA      6444       1    2965    2966    2967    2963
CTETRA      6445       1    2968    2483    2482    2969
CTETRA      6446       1    2281    6842    5169    5174
CTETRA      6447       1    6817    6818    6813    4231
CTETRA      6448       1    1144    1145     927    2388
CTETRA      6449       1    1184    1189    1181    1187
CTETRA      6450       1    1157    1184    1187    1189
CTETRA      6451       1    2970    2130    2971    5298
CTETRA      6452       1    1346    1187    2967    1192
CTETRA      6453       1    1346    1187    1348    1347
CTETRA      6454       1    2972    5218    5219    5163
CTETRA      6455       1    1566    1345     802     531
CTETRA      6456       1    6814    6816    6817    4231
CTETRA      6457       1     803    1555    1556     805
CTETRA      6458       1    2973    1876    2974    2975
CTETRA      6459       1    1838    1411    1839    1689
CTETRA      6460       1    1880    1876    2974    2973
CTETRA      6461       1    1846    1461    1845    1880
CTETRA      6462       1    1880    1574    2976    1459
CTETRA      6463       1    6741    5274    6908    5268
CTETRA      6464       1    2973    1880    1574    2976
CTETRA      6465       1    1459    1880    2977    2976
CTETRA      6466       1    6810    4241    6821    4237
CTETRA      6467       1    2345    6839    4231    4232
CTETRA      6468       1     599     603    2155    1460
CTETRA      6469       1    1458    1459     802    1880
CTETRA      6470       1    2718    2009    2978    2979
CTETRA      6471       1     802    1459    1572    1574
CTETRA      6472       1     127    5107     909    5108
CTETRA      6473       1     802    1459    1056    1572
CTETRA      6474       1    1081    2664    1763    1449
CTETRA      6475       1    1872    1328    2664    1449
CTETRA      6476       1    2664    2534    1872    1427
CTETRA      6477       1    2345    6815    6814    4231
CTETRA      6478       1    1427    1872    2664    2592
CTETRA      6479       1    1273    1581    1244    2133
CTETRA      6480       1     928     826    6809    2980
CTETRA      6481       1    6812    4240    4238    6819
CTETRA      6482       1    1083    1872    1082    1441
CTETRA      6483       1    1063    1382    1673    1439
CTETRA      6484       1    6812    4238    6818    6819
CTETRA      6485       1    4231    6818    6813    4232
CTETRA      6486       1     760    1824    1069     882
CTETRA      6487       1    2981    1816    1819    1525
CTETRA      6488       1    2982    4223    4229    4224
CTETRA      6489       1    2983    5162    5161    5217
CTETRA      6490       1    4240    6811    6810    6820
CTETRA      6491       1    2981    1819    1521    1525
CTETRA      6492       1    2981    1817    2767    2984
CTETRA      6493       1    2981    2984    1534    1521
CTETRA      6494       1    2664    1328    2535    2808
CTETRA      6495       1    2664    1328    2534    2535
CTETRA      6496       1    1429    1441    1437    1436
CTETRA      6497       1    2664     169    1449    2808
CTETRA      6498       1    2985    6916    6740    6815
CTETRA      6499       1    2986    5175    5178    5169
CTETRA      6500       1    2987    2664    2535    2808
CTETRA      6501       1    1081    2664    1872    2592
CTETRA      6502       1    2527    1764    1486    1833
CTETRA      6503       1    2664    2988    2665    2592
CTETRA      6504       1    2664    2989    2990    2665
CTETRA      6505       1    2991    4238    4240    4239
CTETRA      6506       1    2992    1288     529     528
CTETRA      6507       1    2871    6832    4278    4279
CTETRA      6508       1    1931    2993    2994    2992
CTETRA      6509       1    2992    1290     529    1288
CTETRA      6510       1    6833    4278    6798    6832
CTETRA      6511       1    6798    6797    4278    6833
CTETRA      6512       1    1104     521     248    1105
CTETRA      6513       1     617     248      37     213
CTETRA      6514       1     248      37     213     521
CTETRA      6515       1     996    1314      36    1311
CTETRA      6516       1    2050    4946    4958    4947
CTETRA      6517       1     521    1105     249     248
CTETRA      6518       1    2960    4934    6853    4939
CTETRA      6519       1      36    2995     156     521
CTETRA      6520       1    1459    1880    1460    2977
CTETRA      6521       1    1175    1314     720    1177
CTETRA      6522       1     439     438     824    1225
CTETRA      6523       1     954     762    1683    1803
CTETRA      6524       1     226     984      44     334
CTETRA      6525       1    1460    1679    1880    1682
CTETRA      6526       1     599    1270    1681    1460
CTETRA      6527       1    1124     526    1924    1588
CTETRA      6528       1    2799    4262    4255    4254
CTETRA      6529       1    1590    2590    1785    2585
CTETRA      6530       1    2584    1590    1688    2996
CTETRA      6531       1    1590    2585    1785    2723
CTETRA      6532       1    1873    1924     573     571
CTETRA      6533       1    6796    4276    6834    6835
CTETRA      6534       1    6771    6772    6877    5081
CTETRA      6535       1    2997    4267    4263    4262
CTETRA      6536       1    1590    2584    1688    1124
CTETRA      6537       1    1590    1924    2723    1785
CTETRA      6538       1     446     651    1333    1334
CTETRA      6539       1     789     844     790     843
CTETRA      6540       1     243     364    1046     475
CTETRA      6541       1    1660    1359    1358    2898
CTETRA      6542       1    2998    6796    6721    6720
CTETRA      6543       1     246     251     790    1170
CTETRA      6544       1     446    1170    1332    1333
CTETRA      6545       1    1400    2754    1056    2155
CTETRA      6546       1    2194    6851    4268    6852
CTETRA      6547       1    1400     489    1401     600
CTETRA      6548       1    2959    4268    4270    6852
CTETRA      6549       1    1401     499     489    1520
CTETRA      6550       1    2264    1780    2779    1918
CTETRA      6551       1     487     498    1520     499
CTETRA      6552       1    2144    4217    4259    4248
CTETRA      6553       1    2965    2968    1277    2966
CTETRA      6554       1    5455    7017    7018    4714
CTETRA      6555       1    1329    2693    2623    2567
CTETRA      6556       1    2106    4265    4273    4266
CTETRA      6557       1    1420    1393    1905    1909
CTETRA      6558       1    2106    4265    4266    4261
CTETRA      6559       1    2999    4256    4251    4255
CTETRA      6560       1    1401    2368    1643    1646
CTETRA      6561       1    1520     499    1645    1401
CTETRA      6562       1    1450    1752    1190    2659
CTETRA      6563       1    1450    1191    2659    1190
CTETRA      6564       1    1373    1450    1374    1716
CTETRA      6565       1    1450    1860    1752    1716
CTETRA      6566       1    6799    4273    6831    6832
CTETRA      6567       1     591    1450    1191    2938
CTETRA      6568       1     890     888    1019     886
CTETRA      6569       1     689     691    1393    1420
CTETRA      6570       1     691    1420     689     683
CTETRA      6571       1    1618    1422     281     683
CTETRA      6572       1     987    1970    1358    1617
CTETRA      6573       1     835    1322    1718    1323
CTETRA      6574       1     431    1790     432     433
CTETRA      6575       1     872    1405    1379    1323
CTETRA      6576       1    1588    1124    1591    1589
CTETRA      6577       1     461     548     825     430
CTETRA      6578       1    2997    4267    4264    4263
CTETRA      6579       1     135    2219    4940    4941
CTETRA      6580       1    2132    2394     175    2133
CTETRA      6581       1     943    3000    4996     945
CTETRA      6582       1    3001    6625    6550    6549
CTETRA      6583       1    3002    6405    6481    6406
CTETRA      6584       1     832    1789     833    2875
CTETRA      6585       1     716     717    1719     982
CTETRA      6586       1     716     439     982    1873
CTETRA      6587       1     463    1353     834    1100
CTETRA      6588       1    3003    1478    5241    5227
CTETRA      6589       1    2970    6744    6745    6669
CTETRA      6590       1     212     221     537    1044
CTETRA      6591       1    1460    2756    2977    1679
CTETRA      6592       1     450     821     936    1138
CTETRA      6593       1     836     837    1471     985
CTETRA      6594       1     457     481     808    1564
CTETRA      6595       1    1718     835     715     832
CTETRA      6596       1    3004    2879    5998    5999
CTETRA      6597       1    3005    6293    6369    6294
CTETRA      6598       1    1017    1055     922     808
CTETRA      6599       1     502     505    1249    1269
CTETRA      6600       1    2292    5303    5306    5304
CTETRA      6601       1    3006    5303    5305    5306
CTETRA      6602       1    1579    2480    3007    3008
CTETRA      6603       1    1203    1452    2472    1249
CTETRA      6604       1    1654    6523    6448    6447
CTETRA      6605       1     502    1269    1249    1342
CTETRA      6606       1    2729    1142    1343    1141
CTETRA      6607       1    1094    5231    5230    5245
CTETRA      6608       1    6152    6151    2569    6227
CTETRA      6609       1    3009    6676    6601    6600
CTETRA      6610       1    1337     585    1775     542
CTETRA      6611       1    1340    1337    1341     585
CTETRA      6612       1    3010    5278    5292    5293
CTETRA      6613       1    1337    1341    1338    1340
CTETRA      6614       1    1337    1341     585     312
CTETRA      6615       1     275     312    2732    2729
CTETRA      6616       1    2632    5281    5277    5278
CTETRA      6617       1    1142    1141    1342    1343
CTETRA      6618       1     919    1382    1740     179
CTETRA      6619       1    1644    5282    5277    5281
CTETRA      6620       1    2250    6379    6303    6378
CTETRA      6621       1    1788    6216    6924    6923
CTETRA      6622       1    3011    3012    3013    2588
CTETRA      6623       1    1138     616      37    1306
CTETRA      6624       1     450     449    1177     996
CTETRA      6625       1    1024     773     616    1629
CTETRA      6626       1    4306    4387    2180    4305
CTETRA      6627       1     996    1551    1138      37
CTETRA      6628       1    3014    4478    4482    4479
CTETRA      6629       1     118     329      22      56
CTETRA      6630       1     646     832     836     834
CTETRA      6631       1     591    3015    1191    1451
CTETRA      6632       1     591    1191     592    2938
CTETRA      6633       1    6779    5016    6780    6869
CTETRA      6634       1     851    1472     591    1451
CTETRA      6635       1    3016    4474    4485    4473
CTETRA      6636       1    1374    2938     591     590
CTETRA      6637       1    1191     592    2938    3017
CTETRA      6638       1    1191    1194    3018    3017
CTETRA      6639       1    1450    1191    1190    1451
CTETRA      6640       1     468    1131    1071     876
CTETRA      6641       1     182      27     448     575
CTETRA      6642       1    1733     576     447    1158
CTETRA      6643       1    6782    6867    4962    6866
CTETRA      6644       1    6779    6870    5018    5016
CTETRA      6645       1     381    1416    1415     379
CTETRA      6646       1    1128    1015    1129    1357
CTETRA      6647       1     181     735     734    1355
CTETRA      6648       1     680    1726    5259    5262
CTETRA      6649       1    1599    1055     838    1231
CTETRA      6650       1     807    1011     808    1017
CTETRA      6651       1     743    1137     913    1486
CTETRA      6652       1     278    1447    1303    1305
CTETRA      6653       1    1219    1217    1882    1884
CTETRA      6654       1    3019    2400    5211    1292
CTETRA      6655       1    2322    5157    3019    5213
CTETRA      6656       1    1219      83    1217    1884
CTETRA      6657       1    1220    1217    2429    1882
CTETRA      6658       1    2279    6224    6300    6225
CTETRA      6659       1    1392    2788    1220    2429
CTETRA      6660       1    1221    1398    1444     590
CTETRA      6661       1    1392    1220    1217    2429
CTETRA      6662       1     545     546     547     452
CTETRA      6663       1    1273    1244    1675    2133
CTETRA      6664       1    2692    5154    5197    5196
CTETRA      6665       1     462     838    1231    1582
CTETRA      6666       1    5130    2382    7030    2837
CTETRA      6667       1     680    6757    5261    6758
CTETRA      6668       1    1292    5197    5155    5195
CTETRA      6669       1    2279    6150    6149    6225
CTETRA      6670       1    1102    1309    3020    1386
CTETRA      6671       1    1102    1791    2479    1101
CTETRA      6672       1    1234      39    1306    1224
CTETRA      6673       1     951    6957    4280    4682
CTETRA      6674       1    3021    6348    6272    6347
CTETRA      6675       1    2719    4993    5035    4888
CTETRA      6676       1    1233    1224    2433    1234
CTETRA      6677       1    1101    1233    1224    2433
CTETRA      6678       1    2719    4887    4993    4888
CTETRA      6679       1    2870    5034    5031    5033
CTETRA      6680       1     140    1055     923     830
CTETRA      6681       1    1102    2433    1233    1101
CTETRA      6682       1     951    5394    6956    5393
CTETRA      6683       1    3022    4942     159     240
CTETRA      6684       1    1234    1746     830    1306
CTETRA      6685       1    1381    1733    1158    2516
CTETRA      6686       1    1199    1197    1195     465
CTETRA      6687       1    2844    2835    2847    2884
CTETRA      6688       1    1259     465    1100    1199
CTETRA      6689       1     464    1259     451    1100
CTETRA      6690       1    1919    6138    6139    6063
CTETRA      6691       1     229    1204    1689     542
CTETRA      6692       1    2639    3023    3024    3025
CTETRA      6693       1    1838    1846    1845    1875
CTETRA      6694       1    3026    3027    1635    2614
CTETRA      6695       1    1838     805    1689    1843
CTETRA      6696       1     224    1689    1411     805
CTETRA      6697       1    6803    6828    4252    6827
CTETRA      6698       1    3028    6773    6772    5084
CTETRA      6699       1    1939    2334    2449    2336
CTETRA      6700       1    1939    1940    1947    2377
CTETRA      6701       1    1939    2334    2377    1947
CTETRA      6702       1     648     387     389     650
CTETRA      6703       1     527     526     525     717
CTETRA      6704       1     937    1352    1125    1126
CTETRA      6705       1     535    4715    4710    7016
CTETRA      6706       1     194     196    5088    5087
CTETRA      6707       1     662    1299     866    1123
CTETRA      6708       1    2890    2066    3029    3030
CTETRA      6709       1     532    4715    4714    4713
CTETRA      6710       1     872     837     835    1322
CTETRA      6711       1     872    2282    1323    1379
CTETRA      6712       1    6772    6773    6876    5084
CTETRA      6713       1    1122    1588    1376     526
CTETRA      6714       1    1405    1587    1719     982
CTETRA      6715       1    1376     519     660    1123
CTETRA      6716       1    1405    1719    1587    1323
CTETRA      6717       1    1124    1589    3031    1591
CTETRA      6718       1    1998    5052    5042    5043
CTETRA      6719       1    1590    2590    1589    1785
CTETRA      6720       1    1123    1125    2276    1124
CTETRA      6721       1    1125    2271    2276    2932
CTETRA      6722       1    2119    2059    3032    3024
CTETRA      6723       1    1588    1376    1378    1123
CTETRA      6724       1     662     660    1123     866
CTETRA      6725       1    5490    3033    5565    3034
CTETRA      6726       1    2380    5056    5055    5060
CTETRA      6727       1     526    1688     571     572
CTETRA      6728       1    1773    1718    3035    3036
CTETRA      6729       1    1773    3037    1774    3036
CTETRA      6730       1    3038    1773    2453    2876
CTETRA      6731       1    1773    3039    2876    3038
CTETRA      6732       1    1774    1787    3039    1773
CTETRA      6733       1     629    1774    1787    3039
CTETRA      6734       1     981     716    1770     432
CTETRA      6735       1    3040    6611    6536     541
CTETRA      6736       1    2059    3032    3024    3025
CTETRA      6737       1    2234    5092    5111    5112
CTETRA      6738       1    2876    2873    3039    1773
CTETRA      6739       1    6761    6888    5067    6887
CTETRA      6740       1    3025    3032    3041    2445
CTETRA      6741       1    6759    6889    6890    4889
CTETRA      6742       1     715     435    1773    1718
CTETRA      6743       1     605     447    1381    1733
CTETRA      6744       1     447    1158    1381    1733
CTETRA      6745       1      97    1486    1135    1489
CTETRA      6746       1      89     614     511     743
CTETRA      6747       1    3042    2198    4390    3043
CTETRA      6748       1     179    1159    1382     735
CTETRA      6749       1    2637    6755    6679    6754
CTETRA      6750       1     578     568     575     577
CTETRA      6751       1     469     467     470    1658
CTETRA      6752       1    1175     721     449    1177
CTETRA      6753       1     576     575     448    1107
CTETRA      6754       1    2982    4223    4228    4229
CTETRA      6755       1     785    4708    4698    4697
CTETRA      6756       1     576    1107     448    1158
CTETRA      6757       1    2432    4242    4218    4248
CTETRA      6758       1    1175    1314    1104    1174
CTETRA      6759       1     120     773     122    1024
CTETRA      6760       1    6811    3044    3045    2991
CTETRA      6761       1    3025    3032    2445    2059
CTETRA      6762       1    2280    6842    4234    4228
CTETRA      6763       1    6807    6824    4227    6823
CTETRA      6764       1     727    1738     730     729
CTETRA      6765       1     679    1750    2263     682
CTETRA      6766       1    2263    2603     682    1750
CTETRA      6767       1    3025    2869    2719    3046
CTETRA      6768       1    1903    1904    1749    2263
CTETRA      6769       1    2316    2601     678    1921
CTETRA      6770       1    3026     247    1635    3027
CTETRA      6771       1     677     651    2263     682
CTETRA      6772       1     826    4230    4226    4225
CTETRA      6773       1    2780    2830    1333    1615
CTETRA      6774       1    6808    6823    4235    6822
CTETRA      6775       1    2780    2263    1749    1904
CTETRA      6776       1    1287    1294    2661    1290
CTETRA      6777       1    1740    1287    2663    1286
CTETRA      6778       1    1287    1286    1290    2660
CTETRA      6779       1    3047    4318    4319    4393
CTETRA      6780       1    3048    4391    4386    4385
CTETRA      6781       1     733    1294    1015    1354
CTETRA      6782       1    2913    2596    2197    6682
CTETRA      6783       1    2818    4304    4484    4305
CTETRA      6784       1    1294    1015    1016    1295
CTETRA      6785       1     909    5085    5109    5108
CTETRA      6786       1    1294    1295    1016    1296
CTETRA      6787       1     825     433    1101     431
CTETRA      6788       1    2617    5222    3049    5221
CTETRA      6789       1     900     265     536     504
CTETRA      6790       1    1587    1589    1786    1785
CTETRA      6791       1    2003    4484    4483    4482
CTETRA      6792       1     981    1773    1774    1323
CTETRA      6793       1    1588    1377    1587    1589
CTETRA      6794       1     981    1587    1771    1770
CTETRA      6795       1    1628    1158    1024    1108
CTETRA      6796       1    1628    1108    1024    1629
CTETRA      6797       1     654     961     653     782
CTETRA      6798       1     321     958     861     621
CTETRA      6799       1    1628    1381    1024    1158
CTETRA      6800       1    1081    1449    1872    2664
CTETRA      6801       1    2025    3050    5514    3051
CTETRA      6802       1    1082    1872    1764    1441
CTETRA      6803       1     264     504     501     503
CTETRA      6804       1    1726    5262    6756    5260
CTETRA      6805       1    2003    4481    4487    4482
CTETRA      6806       1    1268    1267     501    2559
CTETRA      6807       1    3052    6670    6594    6669
CTETRA      6808       1     264     502     501     506
CTETRA      6809       1    3025    3053    2719    3054
CTETRA      6810       1     264     502     505     503
CTETRA      6811       1     951     952    4682    4280
CTETRA      6812       1     951    5394     952    4280
CTETRA      6813       1     957     883    1452    1044
CTETRA      6814       1     951    4727    4676    4675
CTETRA      6815       1    2637    5260    6756    6755
CTETRA      6816       1    1292    5195    1293    5197
CTETRA      6817       1     501     500     506    1538
CTETRA      6818       1    1098    1047    1240    1046
CTETRA      6819       1    2327    3055    1369    3056
CTETRA      6820       1    1369    3056     704    2327
CTETRA      6821       1    3057    4620    4616    4611
CTETRA      6822       1    1232     702    1308    1309
CTETRA      6823       1    2327    1309    3056     703
CTETRA      6824       1    2327    1309    3020    3056
CTETRA      6825       1    2327    1309     703     702
CTETRA      6826       1    3058    4615    4605    4606
CTETRA      6827       1    2033    4612    4576    4575
CTETRA      6828       1    1387    1385    1386    1250
CTETRA      6829       1    2327     704    1369    1387
CTETRA      6830       1    1232     702    2327    1250
CTETRA      6831       1    2107    4279    4275    2890
CTETRA      6832       1     833    2873    1718    2875
CTETRA      6833       1    3059    6267    6268    6192
CTETRA      6834       1     715    1323     835    1718
CTETRA      6835       1     135    4941    4940    4946
CTETRA      6836       1    1664    1353    1789    3060
CTETRA      6837       1    1664    1789    3061    3060
CTETRA      6838       1    3062    4975    4981    4980
CTETRA      6839       1     832     835     837    1322
CTETRA      6840       1     832    2875    1718    1322
CTETRA      6841       1    1664     832     834     983
CTETRA      6842       1      96      95    1082    1834
CTETRA      6843       1    2998    6721    6645    6720
CTETRA      6844       1     605    1381    1673    1733
CTETRA      6845       1       8    4969    4968    4975
CTETRA      6846       1    1673    2591    2067    1439
CTETRA      6847       1       8    4975    4968    4974
CTETRA      6848       1    2176    6487    6563    3063
CTETRA      6849       1    1673    2067    1636    1381
CTETRA      6850       1    2054    2487    2055    1700
CTETRA      6851       1    1671    1834    2383    1437
CTETRA      6852       1    3064    2716    6334    6335
CTETRA      6853       1    1202    1671    1132    1526
CTETRA      6854       1    4970    3062    3065    4980
CTETRA      6855       1    3066    1428    3067    1426
CTETRA      6856       1    1426    3068    3066    1428
CTETRA      6857       1    1428    2229    3067    2230
CTETRA      6858       1    4980    3062    3065    4982
CTETRA      6859       1    2534    1429    2352    1436
CTETRA      6860       1    3069    4565    4568    4566
CTETRA      6861       1    2049    5824    5899    5900
CTETRA      6862       1    3050    5589    5590    5514
CTETRA      6863       1    1732    1673    1439    2591
CTETRA      6864       1    2811    2810    5451    5450
CTETRA      6865       1    3070    4597    2466    4574
CTETRA      6866       1    1427    1428    2591    3068
CTETRA      6867       1    1520    1645    3071    1646
CTETRA      6868       1     487    1520     498     494
CTETRA      6869       1     683    1425     279     685
CTETRA      6870       1    2940    1018    3072    1648
CTETRA      6871       1    2940    1792    3072    1010
CTETRA      6872       1    2940    1011    1010    1018
CTETRA      6873       1    5451    4563    7013    7014
CTETRA      6874       1    3073    5449    5524    5525
CTETRA      6875       1     279    2940    1011     686
CTETRA      6876       1    3074    4663    4662    4664
CTETRA      6877       1    2828    4559    4560    2838
CTETRA      6878       1    2940     686    1641    1792
CTETRA      6879       1     685    1641     279     686
CTETRA      6880       1    3075    5750    5674    5749
CTETRA      6881       1    1416    1003    1051     379
CTETRA      6882       1     469    1910    1317    1479
CTETRA      6883       1     469    1317    1658     470
CTETRA      6884       1     381       9     379     380
CTETRA      6885       1    3076    6324    6248    6323
CTETRA      6886       1     380    1318    2697    1479
CTETRA      6887       1     379    1482    2697    1004
CTETRA      6888       1    2958    4253    4254    4257
CTETRA      6889       1    3077    4246    4243    4247
CTETRA      6890       1     286     289     285     848
CTETRA      6891       1    3078    2493    1822    2492
CTETRA      6892       1    1555    3079    3080    3081
CTETRA      6893       1    2195    6851    6850    4264
CTETRA      6894       1    1823    1262    1822    2892
CTETRA      6895       1    3082    3083    1560    2960
CTETRA      6896       1    4884    4925    3084    4986
CTETRA      6897       1     805    1556    1911    1555
CTETRA      6898       1    1838    1840    1555    1843
CTETRA      6899       1     916    1165    1316     827
CTETRA      6900       1      71     285      66     470
CTETRA      6901       1     826    4230    4237    4235
CTETRA      6902       1     408     780     347     781
CTETRA      6903       1    1284    1025    1244    1275
CTETRA      6904       1     309     310    1284    1025
CTETRA      6905       1    3078    3085    3086    3087
CTETRA      6906       1     210    1044     258     882
CTETRA      6907       1    1121     542     312     543
CTETRA      6908       1    6801    6829    6830    4265
CTETRA      6909       1    5455    7018    4712    4714
CTETRA      6910       1    2871    6799    6798    6832
CTETRA      6911       1    2958    4257    4258    4253
CTETRA      6912       1    1121     275     543     312
CTETRA      6913       1    1122     937     520     519
CTETRA      6914       1     748     504     900     754
CTETRA      6915       1    1176    4726    5391    5392
CTETRA      6916       1    6137    6138    1394    6062
CTETRA      6917       1    1667    2493    1821    3060
CTETRA      6918       1    1822    3086    2892    1263
CTETRA      6919       1    1189    1346    1192    1187
CTETRA      6920       1    1181    1183    1184    1190
CTETRA      6921       1    1183    3015    1284    1451
CTETRA      6922       1     407     925     728     778
CTETRA      6923       1    5392    6955    4726    6954
CTETRA      6924       1    3088    2867    3089    4457
CTETRA      6925       1     151     200     101     309
CTETRA      6926       1    5391    6934    7069    4725
CTETRA      6927       1     655     960     443     731
CTETRA      6928       1    1274     348     780    1272
CTETRA      6929       1    3090    5620    5544    5619
CTETRA      6930       1    1274    1581    1272    1273
CTETRA      6931       1    1584    4724    4730    4725
CTETRA      6932       1    1584    4730    4724    4721
CTETRA      6933       1     594    1183    1275    1284
CTETRA      6934       1     306    4731    4730    4729
CTETRA      6935       1    1144    2792    1143    2388
CTETRA      6936       1    1135     614     730    1690
CTETRA      6937       1    1128    1129    1015    1000
CTETRA      6938       1    1373     286     849     847
CTETRA      6939       1    3091    5250    5222    5223
CTETRA      6940       1     680    5261    6757    5262
CTETRA      6941       1     654     961     698     828
CTETRA      6942       1    1527    1928    1532    2882
CTETRA      6943       1    1284    1244    1025    1675
CTETRA      6944       1    3092    1335    1223    2479
CTETRA      6945       1    3093    2151    2573    3094
CTETRA      6946       1    2479    3095    2657    3020
CTETRA      6947       1    2479    3095    1336    2657
CTETRA      6948       1    2479    3096    3056    3097
CTETRA      6949       1    2479    3056    3096    3098
CTETRA      6950       1    3098    2479    3095    1336
CTETRA      6951       1    2479    1335    2657    1336
CTETRA      6952       1    1060    1054    1051    1037
CTETRA      6953       1    1084    1414    1037    3099
CTETRA      6954       1    6747    6746    5306    6902
CTETRA      6955       1    1414    1037    3099    1060
CTETRA      6956       1    1060    1414    1037    1067
CTETRA      6957       1    3100    6747    6672    6671
CTETRA      6958       1    1416    1414    1060    1067
CTETRA      6959       1    1060    2872    3101    3099
CTETRA      6960       1    6762    6887    6761    5067
CTETRA      6961       1    3102    2223    1199    2809
CTETRA      6962       1    6765    6764    5055    6884
CTETRA      6963       1    2338    5085    5069    6770
CTETRA      6964       1    3102    3103    3104    3093
CTETRA      6965       1    2630    1720    1742    1741
CTETRA      6966       1     929    5090    4906    4905
CTETRA      6967       1    3102    3060    2569    3105
CTETRA      6968       1    1184    1721    1190    1210
CTETRA      6969       1    1546    4545    4462    4461
CTETRA      6970       1     186     188    1116    2021
CTETRA      6971       1    3086    2152    3085    3106
CTETRA      6972       1    3051    5438    5514    5439
CTETRA      6973       1    5440    7003    4664    4659
CTETRA      6974       1     293     290    1472     310
CTETRA      6975       1    7001    4658    5438    4654
CTETRA      6976       1    1181    1183    1191    1193
CTETRA      6977       1     264     500     269     506
CTETRA      6978       1     849    2497    3107    3108
CTETRA      6979       1    1319    1316    2451    1320
CTETRA      6980       1    1319     849    3108    2497
CTETRA      6981       1    1315    1651    1319    1318
CTETRA      6982       1     847     849    2161    2214
CTETRA      6983       1    1319     849    2214    3108
CTETRA      6984       1    1861    1207    1450    1209
CTETRA      6985       1     849    2161    2167    1373
CTETRA      6986       1     687     757     220     760
CTETRA      6987       1    1069     956     955    2299
CTETRA      6988       1    5442    7005    4664    7004
CTETRA      6989       1     479     834    1258    1100
CTETRA      6990       1     911    4639    4655    4640
CTETRA      6991       1    3109    4526    3110    5433
CTETRA      6992       1     220    1069     956     955
CTETRA      6993       1     530     531     397    1345
CTETRA      6994       1    1678    1270    1460    1681
CTETRA      6995       1     468     876     566    1131
CTETRA      6996       1    1072    1023    1071    1022
CTETRA      6997       1    5433    6996    4526    4530
CTETRA      6998       1    2151    2493    3093    3086
CTETRA      6999       1    3049    5222    5253    5221
CTETRA      7000       1    1070    1023    1380    1071
CTETRA      7001       1    1822    1820    1683    2492
CTETRA      7002       1    1072     468    1071    1070
CTETRA      7003       1     951    3111    4675    4682
CTETRA      7004       1     466    1076    1077    1295
CTETRA      7005       1    1176    4727    4676     951
CTETRA      7006       1    3112    6901    5300    5299
CTETRA      7007       1    1070    1380     427    1071
CTETRA      7008       1    1036     427     429    1070
CTETRA      7009       1    2664    1449    1328    2808
CTETRA      7010       1    1848    1327    1972    1448
CTETRA      7011       1    1326    1833     852    1764
CTETRA      7012       1    1762    2565    1511     621
CTETRA      7013       1    3010    5278    5293    5279
CTETRA      7014       1     853    1449    1763    1448
CTETRA      7015       1    1872    1449    1764    1328
CTETRA      7016       1     143     923     922     278
CTETRA      7017       1    1390    5117    5116    4907
CTETRA      7018       1     620     706    1507     708
CTETRA      7019       1    3113    4462    4463    4515
CTETRA      7020       1    1425    2444    1507     685
CTETRA      7021       1    3114    3115    6403    6328
CTETRA      7022       1    2442    2757    2773    1980
CTETRA      7023       1    1419    1511    1512    2761
CTETRA      7024       1    1582    1231     453    1962
CTETRA      7025       1     781    1026    1025    1275
CTETRA      7026       1    1315    1319     848    1318
CTETRA      7027       1    3116    6404    3117    6329
CTETRA      7028       1    1175    1174     764    1314
CTETRA      7029       1    1175     764     720    1314
CTETRA      7030       1     646     835     871     837
CTETRA      7031       1    5422    6985    4485    4488
CTETRA      7032       1     907     273    1793    1543
CTETRA      7033       1     274    1342     537    1142
CTETRA      7034       1      97     743    1486     852
CTETRA      7035       1    3118     968    3114    3119
CTETRA      7036       1    5432    6994    6995    4530
CTETRA      7037       1     954     762     972    1683
CTETRA      7038       1    3119     968    3114    3115
CTETRA      7039       1    3113    4526    4510    4515
CTETRA      7040       1    1127    3120    1261    1260
CTETRA      7041       1    1127    1364    1650    3120
CTETRA      7042       1    3116    1454    1455    1453
CTETRA      7043       1     577    1736    1701    2145
CTETRA      7044       1    1736    2641    1734    3121
CTETRA      7045       1    1129    1130    1698    1034
CTETRA      7046       1    2215    2110    1742    2720
CTETRA      7047       1    4461    1547    2056    4544
CTETRA      7048       1      87     234      92      50
CTETRA      7049       1    5433    6995    6996    4530
CTETRA      7050       1    1220    2678    1882    2429
CTETRA      7051       1    2970    5295    5298    5302
CTETRA      7052       1    3112    5291    5290    5299
CTETRA      7053       1    2188    5292    5291    5300
CTETRA      7054       1    1220    1389    1881    2208
CTETRA      7055       1    3122    1023    1455    1021
CTETRA      7056       1    1020    1023    3122    1021
CTETRA      7057       1     286     849     848     964
CTETRA      7058       1     847    1374    2429    2161
CTETRA      7059       1    1373    1374     847    2161
CTETRA      7060       1    2153    6673    6598    6597
CTETRA      7061       1    1217     390    2214    1869
CTETRA      7062       1    1027    1676    1496    1793
CTETRA      7063       1    3123    5301    5293    5300
CTETRA      7064       1    6750    5290    6899    5299
CTETRA      7065       1    3112    6901    5299    6900
CTETRA      7066       1    6747    5305    6902    5306
CTETRA      7067       1    1218     291     288    1113
CTETRA      7068       1    1819    1152     926    1531
CTETRA      7069       1    3011    6294    3005    2619
CTETRA      7070       1    1819    1525    1815    1149
CTETRA      7071       1    1149    1819    1152     926
CTETRA      7072       1    2954    1305    3124    2464
CTETRA      7073       1    2954    1418    1514    1597
CTETRA      7074       1    2954    3124    3125    3126
CTETRA      7075       1     770    2014    1558    1967
CTETRA      7076       1    1104    1314    1313    1174
CTETRA      7077       1    1103     448    1108    1024
CTETRA      7078       1     521     156      37     213
CTETRA      7079       1     248    1105     249     247
CTETRA      7080       1    3127    6525    6450    6449
CTETRA      7081       1     248    1105     247    1108
CTETRA      7082       1    6775    6776    6873    4901
CTETRA      7083       1     950    6872    4901    5015
CTETRA      7084       1     182     576     448     180
CTETRA      7085       1    1183    1190    1191    1451
CTETRA      7086       1    1184    1210    1212    1721
CTETRA      7087       1    1190    1752    1210    1721
CTETRA      7088       1    1190    1721    1723    1752
CTETRA      7089       1    1207    1859     964    1208
CTETRA      7090       1    1190    1188    1194    1723
CTETRA      7091       1    2381    2903    2380    6764
CTETRA      7092       1    1194    3128    3129    3018
CTETRA      7093       1     714     435     833    2572
CTETRA      7094       1     454     462     459     452
CTETRA      7095       1     981     434    1719     716
CTETRA      7096       1     327     763     329     184
CTETRA      7097       1    1312    1174     568     650
CTETRA      7098       1      36    1551      39    1225
CTETRA      7099       1     438     439    2073    1225
CTETRA      7100       1     431    1223     440    2722
CTETRA      7101       1    1659    2779    1170     251
CTETRA      7102       1     843     789    1831     842
CTETRA      7103       1    6772    6877    5081    5084
CTETRA      7104       1    2380    5055    6765    6764
CTETRA      7105       1     843    1227    2649    2650
CTETRA      7106       1     843     845    1227    1831
CTETRA      7107       1     563    1125    1352    1126
CTETRA      7108       1     192    1463     515     512
CTETRA      7109       1     557     562     560     558
CTETRA      7110       1    1122    1126    1688     572
CTETRA      7111       1    1688    1125    1124    2584
CTETRA      7112       1     374    6693    6617    6692
CTETRA      7113       1    3130    5082    5084    5081
CTETRA      7114       1    1688    1125    2584     512
CTETRA      7115       1    2051    4487    4486    4479
CTETRA      7116       1    2003    4483    4481    4482
CTETRA      7117       1     354    5078    5074    5080
CTETRA      7118       1     944    4907    4994    5004
CTETRA      7119       1     520    1126     764     650
CTETRA      7120       1     864     626     767     494
CTETRA      7121       1    1123    1798     866     660
CTETRA      7122       1    3131    5082    5075    5083
CTETRA      7123       1    2938    2788    1716    3132
CTETRA      7124       1    1318    3133    2697    1651
CTETRA      7125       1     997    2214    2495     848
CTETRA      7126       1    2105    3134    4256    6850
CTETRA      7127       1    1319     848    2214     849
CTETRA      7128       1    3135    6507    6431    6506
CTETRA      7129       1     851    1373    1450    1374
CTETRA      7130       1     532    4711    4713    4708
CTETRA      7131       1      78     997    1827     796
CTETRA      7132       1    1827    2214    2495     997
CTETRA      7133       1    3136    6422    6497    6498
CTETRA      7134       1     532    4711    4715    4713
CTETRA      7135       1     469    1479    1375    1910
CTETRA      7136       1    1315    1317    1319    1651
CTETRA      7137       1    1319    1318    1651    2495
CTETRA      7138       1    1318    2495    3133    1651
CTETRA      7139       1     289     997     848     390
CTETRA      7140       1    1677    1793    1027    1496
CTETRA      7141       1     290    1472    1677     589
CTETRA      7142       1     426    1967    1380    1036
CTETRA      7143       1    2338    6770    6769    5085
CTETRA      7144       1     286     847     289     848
CTETRA      7145       1    1374    2936    1716    2788
CTETRA      7146       1    1498    1016    1013    1015
CTETRA      7147       1    1013     990    1014     991
CTETRA      7148       1    1013     992     991    3137
CTETRA      7149       1    1499    1013    3137    1022
CTETRA      7150       1    1013    2502     990     992
CTETRA      7151       1    5895    1583    5820    5896
CTETRA      7152       1    2026    4656    4659    4657
CTETRA      7153       1    1498    1015    1295    1016
CTETRA      7154       1     997    3133    1827     796
CTETRA      7155       1    1221     589     590     292
CTETRA      7156       1    3138    4615    4611    4614
CTETRA      7157       1    1217    1884    1869    1882
CTETRA      7158       1     796      85      69    1004
CTETRA      7159       1      78    1862      80    1007
CTETRA      7160       1    6768    6767    5098    6881
CTETRA      7161       1    1862     390    1869    1893
CTETRA      7162       1    2084    4571    4631    4630
CTETRA      7163       1    3139    5895    5970    5971
CTETRA      7164       1    3140    4607    4619    4610
CTETRA      7165       1    2022    4649    4644    4648
CTETRA      7166       1      82      66     997     796
CTETRA      7167       1    6696    6695     938    6771
CTETRA      7168       1    3141     352    3142    6699
CTETRA      7169       1     510     511     730    1135
CTETRA      7170       1    3143    4695    4699    4694
CTETRA      7171       1    1132    1489    2531    1834
CTETRA      7172       1     732    1740     201     828
CTETRA      7173       1    1618    1617    1780    1420
CTETRA      7174       1    2338    6771    6695    6770
CTETRA      7175       1     587     958    1485    1137
CTETRA      7176       1    2240    5019    5017    5018
CTETRA      7177       1    2239    2289    6706    2291
CTETRA      7178       1    1833    1692    3144    2565
CTETRA      7179       1     268     753     360     351
CTETRA      7180       1    3145    6478    6479    6403
CTETRA      7181       1     141     820     142     936
CTETRA      7182       1     921     195     393     196
CTETRA      7183       1     588     862     854    1081
CTETRA      7184       1     588     863     319     862
CTETRA      7185       1    1137    1916    1692    2565
CTETRA      7186       1     840      92      93     122
CTETRA      7187       1     626     769     767     661
CTETRA      7188       1    2829    4312    4408    4409
CTETRA      7189       1    1752    1720    1730    3146
CTETRA      7190       1    3147    4967    4973    6859
CTETRA      7191       1     971    2616    2637    6679
CTETRA      7192       1     381    1060    1414    2872
CTETRA      7193       1     426    1036    3148    1967
CTETRA      7194       1    1073    1969    1455    1453
CTETRA      7195       1    2291    2947    4955    4954
CTETRA      7196       1    3147    6715    3149    6714
CTETRA      7197       1    6788    6861    4974    6860
CTETRA      7198       1    1375    1910    1464    1076
CTETRA      7199       1    4982    2946    3150    4983
CTETRA      7200       1     469    1076    1753    1658
CTETRA      7201       1    3151    4284    4678    4679
CTETRA      7202       1    2017    4669    4761    4670
CTETRA      7203       1    1072    1070    1075     466
CTETRA      7204       1    5404    2102    4364    5405
CTETRA      7205       1    3088    4289    4288    4457
CTETRA      7206       1    1070    1375    1075    1076
CTETRA      7207       1    1911    1555    1843     805
CTETRA      7208       1    1555    1556    1911    3152
CTETRA      7209       1    3153    6073    5997    6072
CTETRA      7210       1    1426    3154    2384    3155
CTETRA      7211       1    1556    1911    3152    3156
CTETRA      7212       1    3157    1555    1844    1840
CTETRA      7213       1    2102    1008     413    2921
CTETRA      7214       1    2293    6071    5996    5995
CTETRA      7215       1    2166    4441    4451    4440
CTETRA      7216       1    1556    3156    1446    1911
CTETRA      7217       1    1556    1114    1849    1446
CTETRA      7218       1    2206    4440    4456    4441
CTETRA      7219       1    2863    3158    2567    2520
CTETRA      7220       1    2741    4443    4442    4459
CTETRA      7221       1    3159    6752    6676    6751
CTETRA      7222       1    1383    1556    1849    1911
CTETRA      7223       1    3160    2441    4445    4444
CTETRA      7224       1    6752    6897    6751    5275
CTETRA      7225       1    2386    1167     828    2390
CTETRA      7226       1    2386     961     698    1154
CTETRA      7227       1    2316    2718    2326    1818
CTETRA      7228       1    1239     960     961    1527
CTETRA      7229       1    2608    2591    1638    2614
CTETRA      7230       1    3161    4442    4443    4447
CTETRA      7231       1    2202    4459    4458    4443
CTETRA      7232       1    1527     731    1134    1133
CTETRA      7233       1    1359     843    2650    1660
CTETRA      7234       1    3062    4980    4969    4975
CTETRA      7235       1    2306    4922    4921    4990
CTETRA      7236       1    1659    1358    2898    1617
CTETRA      7237       1    1659     251    1617    2779
CTETRA      7238       1    1577    6486    6485    6561
CTETRA      7239       1     987     689     986    1970
CTETRA      7240       1       6    4971    4969    4960
CTETRA      7241       1    1358    1617    1970    2898
CTETRA      7242       1     666    5026    4920    5021
CTETRA      7243       1    2576    2693    3162    3163
CTETRA      7244       1    3164    6491    6567    6492
CTETRA      7245       1    2269    4943    4944    4930
CTETRA      7246       1    2000    6643    6719    6644
CTETRA      7247       1     788    1046     364     841
CTETRA      7248       1     788    1046     842    1946
CTETRA      7249       1     715    1718    1773    1323
CTETRA      7250       1     981    1773    1771    1774
CTETRA      7251       1     981     435    1772    1773
CTETRA      7252       1     465     714    1353    2572
CTETRA      7253       1    2387    2906    6690    6615
CTETRA      7254       1     545     549     550     552
CTETRA      7255       1     833    1718    2873    2876
CTETRA      7256       1    1908    4688    4687    4686
CTETRA      7257       1    4316    2505    4314    2048
CTETRA      7258       1    5194    2704    3165    5193
CTETRA      7259       1    1323    1773    3036    1718
CTETRA      7260       1    3166    3167    3168    3169
CTETRA      7261       1    1359    2902    2341    2831
CTETRA      7262       1     405    3170    1914    2341
CTETRA      7263       1    2341    3170    2791    2646
CTETRA      7264       1    2646    2901    2341    2648
CTETRA      7265       1    2646    2791    2647     873
CTETRA      7266       1    2380    2903    2363    5056
CTETRA      7267       1    2645    2649    2648    2100
CTETRA      7268       1    2645    2653    2266    1229
CTETRA      7269       1    2646    2648     873    2647
CTETRA      7270       1    1750     682    1738    2317
CTETRA      7271       1    2076    2102    5405    4366
CTETRA      7272       1    1147    1149    1819    1815
CTETRA      7273       1    3062    4969    4980    4970
CTETRA      7274       1    1751    1819    1816    1815
CTETRA      7275       1    1751    1818    1816    1817
CTETRA      7276       1    1935     961    1528    1527
CTETRA      7277       1     682    1738    2317     729
CTETRA      7278       1    2946    3171    6710    6711
CTETRA      7279       1    3150    4965    4964    4978
CTETRA      7280       1    3172    6252    6177    6176
CTETRA      7281       1    2291    4915    4916    4955
CTETRA      7282       1    1205    6709    6710    6634
CTETRA      7283       1    3173    6312    1826    1825
CTETRA      7284       1    1256    1531    2823    1817
CTETRA      7285       1     350     582     246     651
CTETRA      7286       1    1030    2284     991    2283
CTETRA      7287       1    6785    6864    4979    4983
CTETRA      7288       1    3150    4979    4978    4983
CTETRA      7289       1    1169     251     651    1749
CTETRA      7290       1    1903    1749    1696    2263
CTETRA      7291       1    3174    5207    5208    5203
CTETRA      7292       1    1696    2549    1903    2545
CTETRA      7293       1    1293    5192    5195    5191
CTETRA      7294       1    1693    2549    1696    2545
CTETRA      7295       1    3175    4411    4320    4319
CTETRA      7296       1    1693    1691    1696    2549
CTETRA      7297       1    2102    4366    2076    4362
CTETRA      7298       1     603    2524    2756    1681
CTETRA      7299       1    1645    1401    1646    1520
CTETRA      7300       1     283    2312    4797    7038
CTETRA      7301       1    1751    1815    1281    1147
CTETRA      7302       1    2102    6968    5405    4366
CTETRA      7303       1     349    2405    2914    1579
CTETRA      7304       1     614     581     511     730
CTETRA      7305       1     350     444     351     244
CTETRA      7306       1      86      97      96      95
CTETRA      7307       1    3062    4982    4980    4981
CTETRA      7308       1    3065    4978    4977    4982
CTETRA      7309       1    6862    4975    6787    6861
CTETRA      7310       1    6785    4983    6863    6864
CTETRA      7311       1     415    3176     104    2921
CTETRA      7312       1     349    1603    2914    2405
CTETRA      7313       1     863    1629    1628    1024
CTETRA      7314       1    2713    4669    4668    4784
CTETRA      7315       1    3177    4765    4746    4733
CTETRA      7316       1     620     280    1417     278
CTETRA      7317       1     862    2417    2464    1763
CTETRA      7318       1     280     281     282     277
CTETRA      7319       1    2700    4761    4669    4784
CTETRA      7320       1    1303    1814     618     161
CTETRA      7321       1    1129     566    1701    1130
CTETRA      7322       1    1206    1207     963    1208
CTETRA      7323       1     594    1183    1182    1275
CTETRA      7324       1    1183    1191    3015    1451
CTETRA      7325       1    1284    1451    3015    1472
CTETRA      7326       1    1284    1675    1472    3015
CTETRA      7327       1     707     708    2715     706
CTETRA      7328       1     705    1597     707    2715
CTETRA      7329       1    1597     707    2715     706
CTETRA      7330       1     706     709     708    1513
CTETRA      7331       1    2682    4668    4667    4784
CTETRA      7332       1    2713    4668    4669    4684
CTETRA      7333       1     706    1965    1597     707
CTETRA      7334       1    1425    1942    1424    2442
CTETRA      7335       1     706    1507    1640    1417
CTETRA      7336       1    2442    1419    1980    1424
CTETRA      7337       1    1419    1511    2761    1980
CTETRA      7338       1    1403    1646    3178     846
CTETRA      7339       1    2198    4391    4393    4395
CTETRA      7340       1    3014    4482    4478    4484
CTETRA      7341       1    1418    1305     278    1597
CTETRA      7342       1    2003    4482    4487    4479
CTETRA      7343       1    1400    3179    1403    1404
CTETRA      7344       1     373    6767    6692    6691
CTETRA      7345       1    5461    4738    7024    4756
CTETRA      7346       1    2842    6189    6265    6190
CTETRA      7347       1    1410    1408    2170    1895
CTETRA      7348       1    2440    4250    2958    4254
CTETRA      7349       1     966    6844    4223    4221
CTETRA      7350       1    1895    1408    2170    1682
CTETRA      7351       1    3180    6845    6844    4221
CTETRA      7352       1     972    1697    1683    1820
CTETRA      7353       1    1822     762    3181    1683
CTETRA      7354       1    1822     762    1806    3181
CTETRA      7355       1    3180    4221    4220    4245
CTETRA      7356       1    1402    3182    3183    3169
CTETRA      7357       1    2345    6738    6814    6739
CTETRA      7358       1    2438    6654    6653    6729
CTETRA      7359       1     220     954    1350     955
CTETRA      7360       1     669     768      10     383
CTETRA      7361       1    3184    4465    4466    4512
CTETRA      7362       1    3185    5027    5028    5029
CTETRA      7363       1    1862    1007    1886    1863
CTETRA      7364       1    3186    6994    4530    4532
CTETRA      7365       1    1893     390    2214    1827
CTETRA      7366       1    1219    1442    1371    1883
CTETRA      7367       1    1219    1442    2331    1389
CTETRA      7368       1    6704    2302    6779    6703
CTETRA      7369       1    3187    3188    3189    3190
CTETRA      7370       1    6778    6779    6870    5018
CTETRA      7371       1    1403    3182    3191    3192
CTETRA      7372       1    1399    1398    1851    2174
CTETRA      7373       1    3193    4528    4513    4527
CTETRA      7374       1    3194    4523    4524    4519
CTETRA      7375       1    6702    6778     950    2895
CTETRA      7376       1    1371    1836    1884    1883
CTETRA      7377       1    1441    1764    1927    2583
CTETRA      7378       1    3193    4528    4527    4532
CTETRA      7379       1    1083    1439    1872    1441
CTETRA      7380       1    2527    2528    1927    2507
CTETRA      7381       1    1325    1327    1847    3195
CTETRA      7382       1    1833    2527    2624    2625
CTETRA      7383       1      93     854     852    1082
CTETRA      7384       1    1486    1764    2527    1489
CTETRA      7385       1    1872    1764    1441    2534
CTETRA      7386       1    1927    1764    1441    1489
CTETRA      7387       1    1848    1448    1972    1971
CTETRA      7388       1    1762    1511    1448     621
CTETRA      7389       1     621     958     620     277
CTETRA      7390       1    3196    3197     132     133
CTETRA      7391       1    1599    2328    1018    1648
CTETRA      7392       1     188    4651    4650    4660
CTETRA      7393       1    2026    4657    4642    4641
CTETRA      7394       1    3051    4659    4655    4658
CTETRA      7395       1    1842    4640    4656    4641
CTETRA      7396       1     317     161    1746    1814
CTETRA      7397       1     616     618     161    1303
CTETRA      7398       1    1234    1308    1746     154
CTETRA      7399       1     957     955     221    1412
CTETRA      7400       1     883    1069    1627    2299
CTETRA      7401       1     225    1683    1408     954
CTETRA      7402       1     225     227     972     954
CTETRA      7403       1    1203    1622    1627    1625
CTETRA      7404       1     253    1627    1622    2299
CTETRA      7405       1    3051    5513    5514    5438
CTETRA      7406       1    2734    3198    2728    2736
CTETRA      7407       1    3139    5894    5969    5970
CTETRA      7408       1    1627     955    3199    2299
CTETRA      7409       1    3200    2350    3197    3201
CTETRA      7410       1    6901    6748    3112    5305
CTETRA      7411       1    6746    5306    6902    6903
CTETRA      7412       1    1203     254    1624    2472
CTETRA      7413       1    3112    5300    5291    5299
CTETRA      7414       1    1203     253    1452    1627
CTETRA      7415       1     253     883     255    1452
CTETRA      7416       1    1482    1481    1415    1074
CTETRA      7417       1    1703    1465    1375    1464
CTETRA      7418       1    2697    1651    1858    1480
CTETRA      7419       1    2249    4437    4436    4435
CTETRA      7420       1     367      81     671     112
CTETRA      7421       1    1125    1123     662     937
CTETRA      7422       1    2249    4438    4439    4437
CTETRA      7423       1    3202    5546    5470    5545
CTETRA      7424       1     381    1416    1414    1060
CTETRA      7425       1     576    1160     575    1107
CTETRA      7426       1    5404    2102    5405    2921
CTETRA      7427       1     577     568    1160    2145
CTETRA      7428       1     577    1736    2145    1160
CTETRA      7429       1    3203    4350    4351    4338
CTETRA      7430       1    3204    4328    4342    4327
CTETRA      7431       1    2238    4435    4330    4329
CTETRA      7432       1    1008    4364    4359    4358
CTETRA      7433       1     774    1674    1382     775
CTETRA      7434       1    1736    3205    3121    1737
CTETRA      7435       1    1701    3205    2771    2145
CTETRA      7436       1    2921    2076    5405     104
CTETRA      7437       1    3206    4339    4342    4338
CTETRA      7438       1    1065    1003      80    1007
CTETRA      7439       1    1736    1734    1737    3121
CTETRA      7440       1    1159    1673    1702    1733
CTETRA      7441       1     576    1736    1107    1734
CTETRA      7442       1     104     107    1057    5481
CTETRA      7443       1    1557    1121     542     313
CTETRA      7444       1    1911    1689     313    1557
CTETRA      7445       1     804     806     805    1461
CTETRA      7446       1    1566    1370    1568    1573
CTETRA      7447       1     397     334     600     599
CTETRA      7448       1    1838    1411     805    1461
CTETRA      7449       1     803     806    1566    1111
CTETRA      7450       1    1555    3079    3207    3080
CTETRA      7451       1    3208     417    3032    2446
CTETRA      7452       1    2829    4312    4409    4311
CTETRA      7453       1    1657    6622    6623    6547
CTETRA      7454       1     218    6546    1923    6547
CTETRA      7455       1    3209    1844    1845    1840
CTETRA      7456       1    1663     453     546    1960
CTETRA      7457       1    1960    2329    3210    3211
CTETRA      7458       1    3130    5071    5082    5070
CTETRA      7459       1     546    1960    1962    1385
CTETRA      7460       1    2329    1385    2328    1960
CTETRA      7461       1    1960    1962    1647    3212
CTETRA      7462       1    1485     913    1137    1916
CTETRA      7463       1    1485    1915    1942    1780
CTETRA      7464       1     269     753     358     500
CTETRA      7465       1     446     445     651    1334
CTETRA      7466       1     368    5120    3213    5123
CTETRA      7467       1    2249    4439    4436    4437
CTETRA      7468       1     821     625     824    1551
CTETRA      7469       1     747    1580    1244    1026
CTETRA      7470       1     323     324      43     871
CTETRA      7471       1     252     251    1780    1617
CTETRA      7472       1     220    1069     760     956
CTETRA      7473       1    3160    4444    4445    4450
CTETRA      7474       1    2238    4330    4435    4436
CTETRA      7475       1    1262    1261    2892    1235
CTETRA      7476       1    3204    4327    4449    4328
CTETRA      7477       1    3214    3215    3216    3217
CTETRA      7478       1    1262    2892    3218    1235
CTETRA      7479       1    3196    3082    2998     744
CTETRA      7480       1    1262    1823    3218    2892
CTETRA      7481       1    1176    5392    5468    5393
CTETRA      7482       1    5397    6960    4436    4439
CTETRA      7483       1     758    1364    1260     893
CTETRA      7484       1     479     484    1258     834
CTETRA      7485       1     761     759    1090     893
CTETRA      7486       1    5130    3219    1765    5131
CTETRA      7487       1    3115    6327    6402    6403
CTETRA      7488       1    3196     744     133     135
CTETRA      7489       1    2566    5935    5859    3220
CTETRA      7490       1     759    1260    1235     893
CTETRA      7491       1     764    2790    1314    1174
CTETRA      7492       1    1311    2790    2789    2511
CTETRA      7493       1    2270    5013    5015    4902
CTETRA      7494       1    4915    2291    2239    4956
CTETRA      7495       1    3221    5877    5802    5801
CTETRA      7496       1    1725    2073    1311    2789
CTETRA      7497       1    1225    1177      36    1551
CTETRA      7498       1     929    5003    4906    5004
CTETRA      7499       1     764    1174     650    2790
CTETRA      7500       1     807    1048     675    1012
CTETRA      7501       1     820     142     936     616
CTETRA      7502       1    3028    6772    6697    6696
CTETRA      7503       1    1390    4907    4908    4994
CTETRA      7504       1    3222    4537    4470    4469
CTETRA      7505       1     122    1024     674     863
CTETRA      7506       1     279     686     683     685
CTETRA      7507       1    1980    2758    2762    1419
CTETRA      7508       1    3131    3223    5072     357
CTETRA      7509       1    1050    5073    5089    5090
CTETRA      7510       1     683     691     684     692
CTETRA      7511       1     620    1424     958     621
CTETRA      7512       1    2698    6775    6776    6700
CTETRA      7513       1     938    6696    6621    6620
CTETRA      7514       1     683     685     684     691
CTETRA      7515       1    1419    1425    2442    2444
CTETRA      7516       1    3224    6105    6180    6181
CTETRA      7517       1    1618    1485     281    1942
CTETRA      7518       1    1771    1773    1772    1787
CTETRA      7519       1    1587    1379    1323    1774
CTETRA      7520       1    1924    1770    2723    1785
CTETRA      7521       1    2092    4225    4226    4219
CTETRA      7522       1    2437    4249    4248    4258
CTETRA      7523       1    3225    6346    6345    6421
CTETRA      7524       1    2958    4258    4257    4249
CTETRA      7525       1     646     833     832     714
CTETRA      7526       1     853    1326    1448    1762
CTETRA      7527       1     901     967     939    5118
CTETRA      7528       1    2565    1330    1511    1981
CTETRA      7529       1    1330    1978    2690    1981
CTETRA      7530       1    1327    1512    1448    2690
CTETRA      7531       1    1327    2690    3226    1968
CTETRA      7532       1    1325    2807    1848    3195
CTETRA      7533       1    1327    3226    2690    1978
CTETRA      7534       1    1326    1449    1448    1327
CTETRA      7535       1     754     266    1045     753
CTETRA      7536       1     979    4483    4484    4304
CTETRA      7537       1     885     758     756     893
CTETRA      7538       1    3227    4396    4395    4400
CTETRA      7539       1    1775     586     583     585
CTETRA      7540       1     202    1049    2338     909
CTETRA      7541       1    5083     354    5075    3131
CTETRA      7542       1    2093    4304    4367    4383
CTETRA      7543       1    1204     585    1689     542
CTETRA      7544       1    2818    4367    4304    4305
CTETRA      7545       1    1121    1383     908    1813
CTETRA      7546       1    1776    1775     583    1204
CTETRA      7547       1    1689     585     313     542
CTETRA      7548       1     585    1775     586    1340
CTETRA      7549       1    5419    4483    6982    5420
CTETRA      7550       1    5416    4383    4382    6979
CTETRA      7551       1    1339    1775    2203    1625
CTETRA      7552       1    3228    4494    4491    4495
CTETRA      7553       1    6765    6883    6884    5059
CTETRA      7554       1    3196    3197     133    3201
CTETRA      7555       1    1337    1775     585    1340
CTETRA      7556       1    1470    2375    1986    3224
CTETRA      7557       1     780     778     348    1281
CTETRA      7558       1    3229    4219    4246    4220
CTETRA      7559       1     317     319     616    1303
CTETRA      7560       1    1234    2433    1233    1309
CTETRA      7561       1    2698    6776    6775    4901
CTETRA      7562       1    1234    1306    1307     154
CTETRA      7563       1    1541     188    1542    3230
CTETRA      7564       1    3069    4568    4567    4566
CTETRA      7565       1    3231    6348    6423    6424
CTETRA      7566       1    1234    1309    1307    2433
CTETRA      7567       1    1447    1418    1514    2954
CTETRA      7568       1    3232    4490    4501    4491
CTETRA      7569       1    3233    2889    2887    2886
CTETRA      7570       1    5427    4533    4521    6990
CTETRA      7571       1    1746     154    1814     161
CTETRA      7572       1     823    1224    1306    1551
CTETRA      7573       1    1371    1883    1442    1836
CTETRA      7574       1     352    5078    5077    5083
CTETRA      7575       1     352    5083    5077    5084
CTETRA      7576       1    1442    2857    1112    2560
CTETRA      7577       1    1442    2671    2857    1568
CTETRA      7578       1    1219    1883    1884    1882
CTETRA      7579       1     931    5002    5006    5003
CTETRA      7580       1    1446    1110    2175    3234
CTETRA      7581       1     671     491     864     490
CTETRA      7582       1     931    5004    5002    5003
CTETRA      7583       1    2698    6701     950    2181
CTETRA      7584       1    1442    1112    2857    2331
CTETRA      7585       1    1442    1112    2331    1389
CTETRA      7586       1     352    6773    5084    5077
CTETRA      7587       1     914    1691    1169     913
CTETRA      7588       1    2051    4486    4475    4479
CTETRA      7589       1     352    5084    5082    5083
CTETRA      7590       1     697    1208    1165    1954
CTETRA      7591       1     469    1658    1910    1076
CTETRA      7592       1    3235    4479    4475    4476
CTETRA      7593       1    3200    6645    6569    6644
CTETRA      7594       1    2523    4938    4935    4934
CTETRA      7595       1    1859     964    1165    2451
CTETRA      7596       1     469     466    1753    1076
CTETRA      7597       1     108     110     311     101
CTETRA      7598       1     696    1165    1166    1168
CTETRA      7599       1    1848    1328    1449    2808
CTETRA      7600       1    2960    4934    6852    6853
CTETRA      7601       1    1081    1763    2664    1639
CTETRA      7602       1    1325    1848    1327    3195
CTETRA      7603       1     535    4711    4710    4715
CTETRA      7604       1    1449    1763    1971     169
CTETRA      7605       1    1081     854    1763     862
CTETRA      7606       1    1762    1330    1511    2565
CTETRA      7607       1    1326    1833    1329    1330
CTETRA      7608       1    2492    3236    1895    3237
CTETRA      7609       1     546    1386     551    1385
CTETRA      7610       1    1582     454     453     462
CTETRA      7611       1    2492    3238    1895    3236
CTETRA      7612       1    3239    4255    4263    4256
CTETRA      7613       1    2617    3049    5252    5221
CTETRA      7614       1    2440    4250    4255    4251
CTETRA      7615       1     462    1102    1233    1101
CTETRA      7616       1    1232    1250    1595     702
CTETRA      7617       1    2926    6066    6926    6925
CTETRA      7618       1    5396    6958    6959    4280
CTETRA      7619       1     547    1668    1663     544
CTETRA      7620       1    1960    1663     544     546
CTETRA      7621       1    3240    1172    3241    3242
CTETRA      7622       1    1707     515     192    2607
CTETRA      7623       1     632     650    2510     514
CTETRA      7624       1    1890    2510    2515     515
CTETRA      7625       1    2515     515    2877     192
CTETRA      7626       1    2441    4445    4444    4283
CTETRA      7627       1    4285    2581    2202    4284
CTETRA      7628       1    2515    2511    2510    2642
CTETRA      7629       1    2515    2510    2511    2877
CTETRA      7630       1    1689     585     583     313
CTETRA      7631       1    1838    1689     805    1411
CTETRA      7632       1     762    2485    1823    1806
CTETRA      7633       1    3243    1171    5775    5776
CTETRA      7634       1    1689     583    1841    1843
CTETRA      7635       1    1721    1720    1741    1347
CTETRA      7636       1    4363    3244    4357    1057
CTETRA      7637       1    2617    3245    1644    1397
CTETRA      7638       1    4722    2421    3111    4727
CTETRA      7639       1    1722    1187    1347    1720
CTETRA      7640       1    1184    1187    1188    1721
CTETRA      7641       1    1189    1192    1346    1815
CTETRA      7642       1     236     308     245     307
CTETRA      7643       1    1187    1188    2966    1192
CTETRA      7644       1    1822    2492    1683    3181
CTETRA      7645       1    5395    6958    4280    6957
CTETRA      7646       1    1187    1188    1723    3246
CTETRA      7647       1    1397    3112    6750    1032
CTETRA      7648       1    2315    5153    5209    5210
CTETRA      7649       1    3159    6750    6751    6675
CTETRA      7650       1    2314    4897    5209    5153
CTETRA      7651       1    1187    2966    1188    3246
CTETRA      7652       1    1048    3247    2748    3248
CTETRA      7653       1    1048     890    1047     896
CTETRA      7654       1    1748     692    1010    3247
CTETRA      7655       1    3091    5246    5223    5224
CTETRA      7656       1    1048    3247    2751    2748
CTETRA      7657       1    1010    1748     686     692
CTETRA      7658       1    2421    4722    4721    4724
CTETRA      7659       1    1019    1010    1048     807
CTETRA      7660       1    1173    3249    3250    3242
CTETRA      7661       1    3251    3252    3249    3250
CTETRA      7662       1    2067    1381    1081    1636
CTETRA      7663       1     400     403    2403     401
CTETRA      7664       1    1234    1746    1306     154
CTETRA      7665       1     642     792    6947    6948
CTETRA      7666       1    2943    3253    3254    5142
CTETRA      7667       1    3159    6675    6751    6676
CTETRA      7668       1    3255    4778    4779    4782
CTETRA      7669       1    3256    6350    6274    6349
CTETRA      7670       1    1306     161     154    1746
CTETRA      7671       1      37    1306     161     154
CTETRA      7672       1    1138    1306      37    1551
CTETRA      7673       1    1227    2267    1229    2266
CTETRA      7674       1    1363    1227    1955    1601
CTETRA      7675       1    1269    1264    1266     502
CTETRA      7676       1    3257    1032    1397    6675
CTETRA      7677       1     844    1227     843     845
CTETRA      7678       1    1227    1601    2649    3258
CTETRA      7679       1    2970    6745    6744    5302
CTETRA      7680       1     403    2404    2403    3259
CTETRA      7681       1    6744    5295    6905    6743
CTETRA      7682       1    1374    2161    1716    2936
CTETRA      7683       1     847    1392    1217    2429
CTETRA      7684       1    3132    2788    3260    2938
CTETRA      7685       1    2937     589    3015     591
CTETRA      7686       1    3261    3262    2866    3263
CTETRA      7687       1    6970    6969    4361    5407
CTETRA      7688       1    3006    3100    6746    6747
CTETRA      7689       1    1181    1194    1188    1193
CTETRA      7690       1    1861     849    1373     963
CTETRA      7691       1    1373    1450    1860    1861
CTETRA      7692       1    2938    3017     592    3264
CTETRA      7693       1     747     753    1580    1026
CTETRA      7694       1    1206    1145    1143    1211
CTETRA      7695       1     510    1739    1136    1135
CTETRA      7696       1     360    1272     781     347
CTETRA      7697       1     675     986     238    1012
CTETRA      7698       1    1144    1143    1145    2388
CTETRA      7699       1    5450    4562    7013    4563
CTETRA      7700       1     614     914    1169     913
CTETRA      7701       1    3265    4553    4624    4622
CTETRA      7702       1    1907    5909    5984    5985
CTETRA      7703       1    1518     919    1672    1740
CTETRA      7704       1    3266    3267    2443    2304
CTETRA      7705       1    1779    2394    2132    2133
CTETRA      7706       1      96    1132    1671    1834
CTETRA      7707       1    1539    1244     747    1580
CTETRA      7708       1     361     363     269     362
CTETRA      7709       1    2971    5297    5304    5298
CTETRA      7710       1    3268    5267    5219    5218
CTETRA      7711       1    3269    3270    2130    3271
CTETRA      7712       1    1920    2705    2923    2501
CTETRA      7713       1     359     347     348    1272
CTETRA      7714       1     729     581     730     727
CTETRA      7715       1    1324     500    2914    1538
CTETRA      7716       1    1920    1255    2405     349
CTETRA      7717       1    1603    2405    2404    2914
CTETRA      7718       1    1920    2311    1603    2405
CTETRA      7719       1    1227    1955    2267    1832
CTETRA      7720       1    6752    5275    5284    6897
CTETRA      7721       1    1488    6226    6302    6227
CTETRA      7722       1    2338    3130    5069    1049
CTETRA      7723       1    3130    5081    5070    5082
CTETRA      7724       1    1702     915    1736    1701
CTETRA      7725       1    1382    1428    1674    1439
CTETRA      7726       1    2616    6754    6679    6678
CTETRA      7727       1     988    2024    2147    2771
CTETRA      7728       1    1094    5230    5231    5236
CTETRA      7729       1    1518     828    1286    2379
CTETRA      7730       1    1498    1072    1013    1022
CTETRA      7731       1    3272    5233    5230    5236
CTETRA      7732       1    2502    1022    1131    1071
CTETRA      7733       1     732    1740     828    1286
CTETRA      7734       1    1302    5232    5239    5231
CTETRA      7735       1    1198    1259    1650    1200
CTETRA      7736       1    2459    5154    5153    5210
CTETRA      7737       1     463     451     465    1100
CTETRA      7738       1     639    6947    5312     642
CTETRA      7739       1     821    1551    1138    1177
CTETRA      7740       1     887     894     889     884
CTETRA      7741       1     207     411     543     395
CTETRA      7742       1     599     603    1460    1681
CTETRA      7743       1    1582    1564    1565    1662
CTETRA      7744       1    1127    1564    1650    1364
CTETRA      7745       1     758    1564    1127    1364
CTETRA      7746       1    3261     817    1341     608
CTETRA      7747       1    2264    1691    2781    1749
CTETRA      7748       1    2264    2781    1915    1918
CTETRA      7749       1    1915    2800    3273    2742
CTETRA      7750       1    1915    1421    1942    1780
CTETRA      7751       1    1915    1916    1942    2742
CTETRA      7752       1     950    4902    5015    4901
CTETRA      7753       1     914    2264    1915    1780
CTETRA      7754       1     354    5075    5076    5074
CTETRA      7755       1    2528    2527    2530    2529
CTETRA      7756       1    1927    2527    1764    1489
CTETRA      7757       1    2637    6754    5256    6755
CTETRA      7758       1    1103     996     617     248
CTETRA      7759       1    3274    2245     598    1179
CTETRA      7760       1    3275    4489    4475    4474
CTETRA      7761       1     854    1872    1449    1764
CTETRA      7762       1     608    1505     609    2731
CTETRA      7763       1      97    1132    1489    1135
CTETRA      7764       1    1489     852    1486    1764
CTETRA      7765       1    6473    2900    6549    6548
CTETRA      7766       1    2637    6755    6680    6679
CTETRA      7767       1    1833    2625    1486    2527
CTETRA      7768       1    5078     354    5075    5083
CTETRA      7769       1     352    5078    5079    5077
CTETRA      7770       1     479     834     463     647
CTETRA      7771       1     463     647     834     714
CTETRA      7772       1    2616    6753    6754    6678
CTETRA      7773       1    2236    4449    3204    3276
CTETRA      7774       1    3261    1505    2866     817
CTETRA      7775       1    1195     547     553    1668
CTETRA      7776       1    3111    4674    4675    4681
CTETRA      7777       1     882    1824    1237     881
CTETRA      7778       1    2236    4449    4432    4328
CTETRA      7779       1     897     890     888    1019
CTETRA      7780       1    1340    3263    2203    3262
CTETRA      7781       1     877     879     878     255
CTETRA      7782       1     788     841     842    1046
CTETRA      7783       1     883    1237     253     255
CTETRA      7784       1     138     936     674     121
CTETRA      7785       1    2612    5038    5040    5033
CTETRA      7786       1    1057    2076    5406    4366
CTETRA      7787       1    3277    5725    5801    5726
CTETRA      7788       1     254    2476    1269    1993
CTETRA      7789       1     264     536     503     505
CTETRA      7790       1    1042    1452    1249    1269
CTETRA      7791       1    1226    1706     880     845
CTETRA      7792       1    1118    1120     878     877
CTETRA      7793       1     883    1226     879    1452
CTETRA      7794       1    2124    4744    4745    4695
CTETRA      7795       1     877    1118    1706    1365
CTETRA      7796       1    3278    3279     959    2024
CTETRA      7797       1    3279     959    2024    2358
CTETRA      7798       1    3280    5199    5202    5187
CTETRA      7799       1     172    5536    5460    5535
CTETRA      7800       1     962    2358    3279     564
CTETRA      7801       1       9    1036     380     381
CTETRA      7802       1     876    2031     570     566
CTETRA      7803       1     868    2013     869     560
CTETRA      7804       1    2358     959    2024    2359
CTETRA      7805       1     875     561    2358     560
CTETRA      7806       1    1131     976     876    2031
CTETRA      7807       1    2358     564    2147    3279
CTETRA      7808       1    2358    2024    2031    2359
CTETRA      7809       1    2778    3281     412    1767
CTETRA      7810       1    2732    3282     817    1341
CTETRA      7811       1    3283    5188    5181    5187
CTETRA      7812       1    2031    2358     570    2024
CTETRA      7813       1    1294    1016    1015    1356
CTETRA      7814       1     652     654     961     653
CTETRA      7815       1     576    1107    1736    1160
CTETRA      7816       1    1202    1239     961    2390
CTETRA      7817       1     812    3284    5094    5044
CTETRA      7818       1      95    1834    1671    1437
CTETRA      7819       1    6614    2387    6539    6615
CTETRA      7820       1    1382     735    1740     179
CTETRA      7821       1     576    2516    1734    1107
CTETRA      7822       1    2054     775    1700    1438
CTETRA      7823       1    1439    1732    1428    1674
CTETRA      7824       1    2421    4724    4727    4722
CTETRA      7825       1    3285    4281    4280    4438
CTETRA      7826       1    2608    1428    3068    2591
CTETRA      7827       1     626     383     768     669
CTETRA      7828       1    1401    2368    1646    1403
CTETRA      7829       1    2368    1649    1643     860
CTETRA      7830       1    5391    6954    4726    4725
CTETRA      7831       1    4675    3111     951    4727
CTETRA      7832       1    3151    4679    4283    4284
CTETRA      7833       1     788    1946     842    1358
CTETRA      7834       1    3179    1400    1403    2368
CTETRA      7835       1    1365     894    1097    1241
CTETRA      7836       1    3286    4404    4401    4399
CTETRA      7837       1     814    2368     801    1649
CTETRA      7838       1    2368    1649     814    2155
CTETRA      7839       1    2729     312    2732    1341
CTETRA      7840       1    1341    2729    2730    2732
CTETRA      7841       1    3206    4342    4339    4327
CTETRA      7842       1    3287    4324    4341    4336
CTETRA      7843       1     300    2849    2730     608
CTETRA      7844       1    3288    4338    4343    4337
CTETRA      7845       1     312     276    2729     275
CTETRA      7846       1    3288    4342    4343    4338
CTETRA      7847       1    5403    6966    4364    4358
CTETRA      7848       1     608     817    1341    2730
CTETRA      7849       1    3289    2730     608     301
CTETRA      7850       1    3290    4619    4620    4610
CTETRA      7851       1    2811    4292    4563    7014
CTETRA      7852       1    3035    1718    1773    2873
CTETRA      7853       1    1842    4626    4640    4641
CTETRA      7854       1    2721    3291    3113    3292
CTETRA      7855       1    1321     872     497     717
CTETRA      7856       1     825    1224     431    1101
CTETRA      7857       1    3293    4627    4641    4642
CTETRA      7858       1    2873    1718    3294    3035
CTETRA      7859       1     392     859     369    5100
CTETRA      7860       1    1718    1323    1322    3294
CTETRA      7861       1    5392    4726    6955    4676
CTETRA      7862       1    2875    1718    3294    2873
CTETRA      7863       1    1176    4726    4727    4724
CTETRA      7864       1    6934    4731    7028    7069
CTETRA      7865       1    1146    1212    1156    1157
CTETRA      7866       1     199     654     653     782
CTETRA      7867       1     732     694    1285     828
CTETRA      7868       1    2992    1167    2994    1931
CTETRA      7869       1    1159    1702    1355     915
CTETRA      7870       1     828    2379    1167    1286
CTETRA      7871       1    3054    2445    4888    2059
CTETRA      7872       1     380    1479    2697    1482
CTETRA      7873       1    2491    6493    6568    6569
CTETRA      7874       1     174     735     732     734
CTETRA      7875       1     829    2709     827     733
CTETRA      7876       1    1526    1671    2383    2378
CTETRA      7877       1    1259    3103    1261    3295
CTETRA      7878       1    1261    2892    3004    1263
CTETRA      7879       1    6793     133     135    6792
CTETRA      7880       1    1261    3120    3153    3296
CTETRA      7881       1    1562    4929    4937    4928
CTETRA      7882       1    1144    2388     927    1154
CTETRA      7883       1    1144    3297    1151    2792
CTETRA      7884       1    1808    1412    1627    1776
CTETRA      7885       1    3147     160    2050    4972
CTETRA      7886       1    1057    4363    2076    4366
CTETRA      7887       1    1281    1192    1815    1856
CTETRA      7888       1    1274    1189    1193    1182
CTETRA      7889       1     730     729    1738     682
CTETRA      7890       1     120     449     773     448
CTETRA      7891       1    2107    4271    4277    4276
CTETRA      7892       1    1274    1189    1192    1193
CTETRA      7893       1     900     504     274     276
CTETRA      7894       1    2880    2890    2066    2871
CTETRA      7895       1     310    1677    1472    1675
CTETRA      7896       1    6795    6835    4269    4272
CTETRA      7897       1    1562    4937    4938    4928
CTETRA      7898       1    1543     754     276    1537
CTETRA      7899       1     454     451     464    1582
CTETRA      7900       1     820    1138    1306     616
CTETRA      7901       1     984    1681    1270    1697
CTETRA      7902       1     273    1793     275    1813
CTETRA      7903       1    3110    4529    4532    4530
CTETRA      7904       1     623    6889    5064    5068
CTETRA      7905       1     541    6686    6611    6610
CTETRA      7906       1     760     956    1069    1824
CTETRA      7907       1    2197    6683    6608    6607
CTETRA      7908       1     274    1141     503    1342
CTETRA      7909       1     590    3298     592    1398
CTETRA      7910       1    1444    3299    1028    2208
CTETRA      7911       1    6771    3130    5081    5069
CTETRA      7912       1    1220    1444    1389    2208
CTETRA      7913       1    2098    4424    4322    4427
CTETRA      7914       1    1115    1444    1443    1389
CTETRA      7915       1    1115    1398    2175    1443
CTETRA      7916       1     428     427     633     876
CTETRA      7917       1     538    6761    6762    6686
CTETRA      7918       1    2029    2090    3001    2181
CTETRA      7919       1    2698     352    3142     353
CTETRA      7920       1     426    1041    1669    2872
CTETRA      7921       1    1003     768    1067    1575
CTETRA      7922       1     381    1060    2872    1415
CTETRA      7923       1     469    1753     467    1658
CTETRA      7924       1    3220    5934    6010    5935
CTETRA      7925       1    6758    6890    6891    4889
CTETRA      7926       1     385     425     426    1041
CTETRA      7927       1     381     426    1036    2872
CTETRA      7928       1    1060    1414    2872    3099
CTETRA      7929       1    2755    1459    3300    1572
CTETRA      7930       1    2755    3300    1459    2754
CTETRA      7931       1    5445    7008    4649    7007
CTETRA      7932       1    1459    1574    2976    3300
CTETRA      7933       1    1572    1573    2784    1571
CTETRA      7934       1    3301    5812    2178    5813
CTETRA      7935       1    3302    5594    5593    5669
CTETRA      7936       1    1569    2973    1844     806
CTETRA      7937       1     274     275     276     312
CTETRA      7938       1    5449    4568    7011    7012
CTETRA      7939       1    5443    4663    7006    4661
CTETRA      7940       1     471    3303    3304    3305
CTETRA      7941       1    3306    5671    5595    5670
CTETRA      7942       1    1337    1342    2558    1343
CTETRA      7943       1    1838    1844     806    1555
CTETRA      7944       1    1566    1370    1573    1571
CTETRA      7945       1    2755    1572    2784    1571
CTETRA      7946       1    2730     300     178    2140
CTETRA      7947       1    2730    2732     178     177
CTETRA      7948       1     300     301     175    2157
CTETRA      7949       1     300     607     301    3307
CTETRA      7950       1    2026    4657    4641    4656
CTETRA      7951       1     300    2140    2849    2132
CTETRA      7952       1    3308    4608    4636    4637
CTETRA      7953       1     849    2497    2518    3107
CTETRA      7954       1     849    2497    2167    2518
CTETRA      7955       1    3309    2066    6648    6647
CTETRA      7956       1    2518     849    2214    2161
CTETRA      7957       1    2799    4254    4253    4261
CTETRA      7958       1    2106    4266    4267    4262
CTETRA      7959       1     591    2937    1191    3015
CTETRA      7960       1     478    4933    4924    4932
CTETRA      7961       1    2106    2997    2890    3029
CTETRA      7962       1    2871    4279    4274    6832
CTETRA      7963       1    1859    2167    3310    1209
CTETRA      7964       1    1859    1209    1954    1208
CTETRA      7965       1    1859    2451    1165    1954
CTETRA      7966       1    1859    2497    2451    3311
CTETRA      7967       1    1206    1207    1209    1210
CTETRA      7968       1    1901    5230    5229    5245
CTETRA      7969       1    5406    4366    6969    1057
CTETRA      7970       1     800    6081    6082    6006
CTETRA      7971       1    3272    5236    5237    5233
CTETRA      7972       1    1056    1572    2755    1345
CTETRA      7973       1      83     797     737      77
CTETRA      7974       1    1176    4676    4727    4726
CTETRA      7975       1    2669    2539    1884    1882
CTETRA      7976       1    3312    3313     951    3314
CTETRA      7977       1    3028    6697    6773    6698
CTETRA      7978       1    3315    3316    3317    3318
CTETRA      7979       1    1634    1399    1849    1114
CTETRA      7980       1    3319    3320    3157    3321
CTETRA      7981       1    6764    6885    5055    6884
CTETRA      7982       1     726    6388    6313    6312
CTETRA      7983       1    1109    1112    1391    1442
CTETRA      7984       1    1461    1880     802     806
CTETRA      7985       1      82      68      71      66
CTETRA      7986       1    2380    5056    5046    5058
CTETRA      7987       1    1109    1442    1389    1112
CTETRA      7988       1    3315    3322    2504    2484
CTETRA      7989       1    1556    1446    1849    1911
CTETRA      7990       1    1354    1357    1287    1356
CTETRA      7991       1    2903    5060    5065    5061
CTETRA      7992       1    6766    5059    5048    6883
CTETRA      7993       1     356     354     352    3131
CTETRA      7994       1    2093    2042    3323    5492
CTETRA      7995       1    2411    4409    4410    4406
CTETRA      7996       1    1427    2591    2592    2665
CTETRA      7997       1    2067    1872    1427    2592
CTETRA      7998       1     780     778    1281    1189
CTETRA      7999       1    1329    1764    2863    2527
CTETRA      8000       1    1437    1441      95    1834
CTETRA      8001       1    1441    1834    1437    1927
CTETRA      8002       1    1303    2464    1814    1305
CTETRA      8003       1     854    1449    1081    1763
CTETRA      8004       1    3324    2170    1874    2934
CTETRA      8005       1    2170    1877    1682    1874
CTETRA      8006       1    2170    1877    2934    2169
CTETRA      8007       1    1410    1409    3251    3324
CTETRA      8008       1    5459    4706    7021    7022
CTETRA      8009       1    5458    4706    4704    7021
CTETRA      8010       1    1877    3238    3325    2170
CTETRA      8011       1    2170    1877    3238    1682
CTETRA      8012       1     404    5759    5758    5834
CTETRA      8013       1    1401     499    1645    1643
CTETRA      8014       1     498    1520    1645    3071
CTETRA      8015       1    3326    2149    4692    4691
CTETRA      8016       1    1799     660    1885    1798
CTETRA      8017       1    1376    1798    1799    1378
CTETRA      8018       1    1799    3327    1645    1379
CTETRA      8019       1     403    2708    4783    4776
CTETRA      8020       1    1799    1829    3328    1378
CTETRA      8021       1    1799    3071    3327    3328
CTETRA      8022       1    3329    1775     586     583
CTETRA      8023       1    6510    6435    3330    3331
CTETRA      8024       1     883    1069    2299    1237
CTETRA      8025       1    1203    1337    1775     537
CTETRA      8026       1    5533    2259    1331    2253
CTETRA      8027       1    3332    6583    6658    6659
CTETRA      8028       1    1069     955    1627    2299
CTETRA      8029       1    1069    1237    1824    2299
CTETRA      8030       1    2542    4534    4522    4533
CTETRA      8031       1    1237    1214     255    1238
CTETRA      8032       1    3091     713     980    5246
CTETRA      8033       1    3112    6749    6750    6674
CTETRA      8034       1    1237    1216    1824    2299
CTETRA      8035       1    2299    1214    1237    1216
CTETRA      8036       1    1237    1238     255     881
CTETRA      8037       1    1700    2488    2663    2489
CTETRA      8038       1     425    1669     633    1558
CTETRA      8039       1    1702    1735     777    1737
CTETRA      8040       1    1734    3121    1735    1737
CTETRA      8041       1    1734    1735    2614    1732
CTETRA      8042       1     849    3108    3107    2214
CTETRA      8043       1    1319    2497    2451     964
CTETRA      8044       1    1374    1716    1450    2938
CTETRA      8045       1    2938     590    3260    3264
CTETRA      8046       1    1859    1861     964    2497
CTETRA      8047       1    2497    2451    3311    2498
CTETRA      8048       1    1319    2498    2497    3108
CTETRA      8049       1    2497    3107    3108    3333
CTETRA      8050       1    4519    4520    2001    4508
CTETRA      8051       1    3334    4489    4500    4490
CTETRA      8052       1    3113    4463    3291    4515
CTETRA      8053       1    5428    6991    4533    6990
CTETRA      8054       1    1859    2497     964    2451
CTETRA      8055       1    5428    4534    4533    6991
CTETRA      8056       1    1627    1625    1622    1808
CTETRA      8057       1    3133    2697    1858    2820
CTETRA      8058       1     624     637    4890    4889
CTETRA      8059       1    3133    1827    1852    2495
CTETRA      8060       1    1318    2697    3133     796
CTETRA      8061       1    3133    1651    1858    2697
CTETRA      8062       1    2596    6757    6682    6681
CTETRA      8063       1    1436    2521    2583    2582
CTETRA      8064       1     371    5751    2086    5676
CTETRA      8065       1    3335    4621    4609    4555
CTETRA      8066       1    3336    3337    3338    3339
CTETRA      8067       1     638    2260    2407    2158
CTETRA      8068       1    2022    4637    4647    4648
CTETRA      8069       1     372    4608    4621    4619
CTETRA      8070       1     950    2895    2181    6702
CTETRA      8071       1     929    1390     962     959
CTETRA      8072       1    1436    1927    2371    2582
CTETRA      8073       1    1436    2383    2371    1927
CTETRA      8074       1    1425     279     685    1507
CTETRA      8075       1    3218    1091    3340    2485
CTETRA      8076       1    2197    6682    6683    6607
CTETRA      8077       1    3341    2999    3239    2105
CTETRA      8078       1    3180    4245    6845    4221
CTETRA      8079       1     532    4712    4709    4713
CTETRA      8080       1    6808    6809    6822    4235
CTETRA      8081       1    1211    1210    2635    1212
CTETRA      8082       1    2168    4426    4422    4423
CTETRA      8083       1    2698    6776     950    6701
CTETRA      8084       1    1209    1210    2635    1211
CTETRA      8085       1    1187    1348    1721    1157
CTETRA      8086       1    2248    5131    5132    5135
CTETRA      8087       1    2139    6011    5935    6010
CTETRA      8088       1    1210    1209    2635    1860
CTETRA      8089       1    2635    1211    1708    1209
CTETRA      8090       1     885     262     756     758
CTETRA      8091       1    5148    2943    3254    5142
CTETRA      8092       1    3342    1583    3343    5820
CTETRA      8093       1    3073    5523    5524    5448
CTETRA      8094       1    1103    1107     575    1160
CTETRA      8095       1     448    1107    1108    1158
CTETRA      8096       1    3344    5597    5521    5596
CTETRA      8097       1    1712    6680    6681    6605
CTETRA      8098       1    1264    1266    2267    1992
CTETRA      8099       1     425     558    1041    1062
CTETRA      8100       1     581     516     727     346
CTETRA      8101       1    2271    1125    2276    1299
CTETRA      8102       1     650    2790    2510     514
CTETRA      8103       1     385     381     382    1414
CTETRA      8104       1    2093    4382    4383    4368
CTETRA      8105       1     594     315    1284     309
CTETRA      8106       1     190    2607    3345    3279
CTETRA      8107       1    5431    6994    4536    6993
CTETRA      8108       1    3194    4523    4518    4522
CTETRA      8109       1    1890    1707    2515    2605
CTETRA      8110       1    1878    1870    3346    3347
CTETRA      8111       1    1890    2642    1106    2640
CTETRA      8112       1    3348    4527    4512    4525
CTETRA      8113       1     632    1890    2510     650
CTETRA      8114       1     632    1707     563     515
CTETRA      8115       1     866     750     749    1798
CTETRA      8116       1    3349    3350    3351    2049
CTETRA      8117       1    1235    1093    1092    1236
CTETRA      8118       1    3352    4653    4663    4661
CTETRA      8119       1    2021    4636    4647    4637
CTETRA      8120       1    1116    4652    4663    4653
CTETRA      8121       1    3074    4662    4651    4660
CTETRA      8122       1     866    1885     660    1798
CTETRA      8123       1    2296     865    2674    1974
CTETRA      8124       1    1299    1975    1298     865
CTETRA      8125       1     872    1719    1405    1323
CTETRA      8126       1    1690    1693    1695    1691
CTETRA      8127       1    3353    3354    3355    3213
CTETRA      8128       1    1692    3144    3356    3357
CTETRA      8129       1    1692    3356    2743    1916
CTETRA      8130       1    1326    1762    1833    1330
CTETRA      8131       1    2565    1692    3144    2743
CTETRA      8132       1    1739     510    1134    1738
CTETRA      8133       1     524    4690    4706    4689
CTETRA      8134       1    1143    2638    2792    2677
CTETRA      8135       1    1394    6061    6136    6137
CTETRA      8136       1    1144    1149    1148    1151
CTETRA      8137       1    1092    1236     894     889
CTETRA      8138       1    1144     927    1152    1154
CTETRA      8139       1    1168    2638     697    1954
CTETRA      8140       1     630    2928     631    1502
CTETRA      8141       1    1206    1209    1211    1210
CTETRA      8142       1    1179    5254    5247    4891
CTETRA      8143       1    3358    6523    6598    6599
CTETRA      8144       1    1207     964    1859    1861
CTETRA      8145       1     309    1284    1275    1025
CTETRA      8146       1     286     850     964     848
CTETRA      8147       1    2890    4267    4274    4275
CTETRA      8148       1    2997    4268    4264    4267
CTETRA      8149       1     498     499    1645    1520
CTETRA      8150       1    1128     566    1130    1131
CTETRA      8151       1    3359    3318    3360    3361
CTETRA      8152       1    2890    4275    4274    4279
CTETRA      8153       1    1072    1075    1022    1498
CTETRA      8154       1    1560    4927    4939    4926
CTETRA      8155       1    1295    1296    2598    1016
CTETRA      8156       1    1295     733    1294    1015
CTETRA      8157       1    1498    1072    1015    1013
CTETRA      8158       1     744    6854    6855    4926
CTETRA      8159       1    1931    1932    1933    1944
CTETRA      8160       1    1944    2379    3362    1933
CTETRA      8161       1     242    4929    4928    4942
CTETRA      8162       1    1561    4942    4928    4927
CTETRA      8163       1    2698    3142    6700    2181
CTETRA      8164       1    1943    1944    1945    1949
CTETRA      8165       1    2386    1167    1944    1931
CTETRA      8166       1    1944    1945    1936    2391
CTETRA      8167       1    1944    1936    2390    2391
CTETRA      8168       1    4241    6811    6810    4240
CTETRA      8169       1    2854    3315    3363    3361
CTETRA      8170       1    3364    6735    6659    6734
CTETRA      8171       1    1651    2496    2495    1858
CTETRA      8172       1    1316    1166    1320    1658
CTETRA      8173       1    2991    4233    4239    4234
CTETRA      8174       1    1318    1479    1651    2697
CTETRA      8175       1     696     697    1168     698
CTETRA      8176       1     851     293     290    1472
CTETRA      8177       1    1073    1456    1967    1453
CTETRA      8178       1    1074    1036    1073    1456
CTETRA      8179       1    1844    3079    3365    1567
CTETRA      8180       1     426    3148    2872    1669
CTETRA      8181       1     633    2013     875     874
CTETRA      8182       1    1753    2709    1295     733
CTETRA      8183       1       1      23      14      13
CTETRA      8184       1     349    2914    1603     358
CTETRA      8185       1    2405    2914    3366    2404
CTETRA      8186       1    2405    3366    1579    3007
CTETRA      8187       1    2404    2311    1603    1602
CTETRA      8188       1     682     729     581     730
CTETRA      8189       1     752    4524    4535    4531
CTETRA      8190       1    3367    4525    4531    4527
CTETRA      8191       1    1358    1946    1660    1970
CTETRA      8192       1    3110    4529    4528    4532
CTETRA      8193       1    5440    4659    4658    7003
CTETRA      8194       1    5440    7003    4658    7002
CTETRA      8195       1     185    4659    4660    4657
CTETRA      8196       1    2779    2898    1617    1659
CTETRA      8197       1    3368    5441    4664    5440
CTETRA      8198       1    3209    3363    2183    3369
CTETRA      8199       1     689     692     683     686
CTETRA      8200       1    2052    4541    4311    4542
CTETRA      8201       1    1657    6623    6548    6547
CTETRA      8202       1     929    4906    5117    4907
CTETRA      8203       1    1324     506    1538    1268
CTETRA      8204       1     867    2013    1669    1558
CTETRA      8205       1     867     946     355     869
CTETRA      8206       1     867    1669    2013     868
CTETRA      8207       1    3363    3359    3370    2975
CTETRA      8208       1    2318    2320    5264    2319
CTETRA      8209       1     867     770    1669     771
CTETRA      8210       1     867     904     947     946
CTETRA      8211       1    6746    6903    5304    5306
CTETRA      8212       1     208    3371    3330    2775
CTETRA      8213       1    6745    6903    6904    5304
CTETRA      8214       1     867     904    2013    2028
CTETRA      8215       1     591    3015    1451    1472
CTETRA      8216       1    1183    1273    1284    3015
CTETRA      8217       1      84     737    1218     287
CTETRA      8218       1    3372    5263    3373    5270
CTETRA      8219       1    1373     849    1861    2167
CTETRA      8220       1    1677    2937     589    3015
CTETRA      8221       1    3015    1677    2134    1675
CTETRA      8222       1      78    1862      79      80
CTETRA      8223       1    1113     288    1218    1634
CTETRA      8224       1    1373    1716    2161    1860
CTETRA      8225       1     589    3015     591    1472
CTETRA      8226       1    1273    3015    1193    3018
CTETRA      8227       1    3374    3363    3370    2975
CTETRA      8228       1    1675    1793    1027    1677
CTETRA      8229       1    2316    2717    2767    2601
CTETRA      8230       1    2127    4381    4380    4379
CTETRA      8231       1    2483    1255    1579    2480
CTETRA      8232       1    1920    2481    2501    2923
CTETRA      8233       1    1800    4382    4368    4369
CTETRA      8234       1    5414    4379    6977    4381
CTETRA      8235       1    3112    6900    6748    6901
CTETRA      8236       1    2405    3007    2481    2923
CTETRA      8237       1    1255    2405     349    1579
CTETRA      8238       1    2829    4406    4311    4409
CTETRA      8239       1    3112    2188    1397    5291
CTETRA      8240       1    3375    5132    5136    5135
CTETRA      8241       1    2483    1255    2480    2481
CTETRA      8242       1    1102    3020    1309    3056
CTETRA      8243       1    1800    4388    4369    4368
CTETRA      8244       1    1386     551    1385    1384
CTETRA      8245       1    2647    1344     873     918
CTETRA      8246       1    2327    3020    1309    1386
CTETRA      8247       1     922    1017    1011    1599
CTETRA      8248       1    2698     353     950    4902
CTETRA      8249       1    3112    3376    6748    6749
CTETRA      8250       1     865    1975    1298    1973
CTETRA      8251       1    3377    6627    6628    6552
CTETRA      8252       1     563    1352    1125    2933
CTETRA      8253       1    1352    2271    2933    3378
CTETRA      8254       1    2422    1728    2563    1729
CTETRA      8255       1     664    5023    5026    5021
CTETRA      8256       1    1352    1462    1724    3378
CTETRA      8257       1    2271    1724     559    1975
CTETRA      8258       1     563    1125    1126     512
CTETRA      8259       1    3379    2054    2487    2896
CTETRA      8260       1    1612     651    1334    1333
CTETRA      8261       1    2308    4987    4922    4990
CTETRA      8262       1     522     520     526     572
CTETRA      8263       1     476    4933    4929    4930
CTETRA      8264       1    1132    1489    2530    2531
CTETRA      8265       1    2546    1739     730    1135
CTETRA      8266       1     331    6334    6409    6410
CTETRA      8267       1    1274    1192    1856    1277
CTETRA      8268       1    1612     445    1920    1334
CTETRA      8269       1    2698     353    3142    2181
CTETRA      8270       1    1612     445    1334     651
CTETRA      8271       1    1920    1255    2481    2405
CTETRA      8272       1     945    5027    5029    4995
CTETRA      8273       1    1169    2264     251    1749
CTETRA      8274       1    1814     923    1308    1746
CTETRA      8275       1     664    5026    5023    5024
CTETRA      8276       1     520     526     572    1122
CTETRA      8277       1    1644    5281    3091    5223
CTETRA      8278       1    2004    5044    5045    5049
CTETRA      8279       1    2940    1011    1018    1648
CTETRA      8280       1    2867    4419    4418    4428
CTETRA      8281       1     680    5259    5258    5261
CTETRA      8282       1    6755    5256    5260    6894
CTETRA      8283       1     689     683     692     691
CTETRA      8284       1    1418    1417     706    1597
CTETRA      8285       1     675    1048     890    1047
CTETRA      8286       1     958    1424    1511     621
CTETRA      8287       1     620    1507     279    1425
CTETRA      8288       1    1482    2697    1004    2820
CTETRA      8289       1    3380    5023    5020    5029
CTETRA      8290       1    2612    5033    5032    5038
CTETRA      8291       1    1480    1481    1074    1430
CTETRA      8292       1    1480    1479    1482    2697
CTETRA      8293       1    2091     353     950    2181
CTETRA      8294       1    3225    6345    6420    6421
CTETRA      8295       1    3381    4912    2313    5139
CTETRA      8296       1    3225    6346    6270    6345
CTETRA      8297       1     379     796    1004    2697
CTETRA      8298       1    1480    2697    1482    2820
CTETRA      8299       1    3382    5278    5279    5224
CTETRA      8300       1    2537    1995    2420    5390
CTETRA      8301       1    6752    6896    6897    5284
CTETRA      8302       1    1397    5282    5276    5277
CTETRA      8303       1    1416    1051    1003    1067
CTETRA      8304       1    1074    1482     380    1415
CTETRA      8305       1     853     861     852    1762
CTETRA      8306       1    1190    1188    1723    1721
CTETRA      8307       1    1319    2451    1316     964
CTETRA      8308       1    1449    1448    1971    1763
CTETRA      8309       1    1511    1448    1512    2690
CTETRA      8310       1    3375    5132    5133    5136
CTETRA      8311       1    1132    1136    2530    1135
CTETRA      8312       1    1595    2715    1250    1648
CTETRA      8313       1    1486    2530    1489    2527
CTETRA      8314       1    3383    5294    5280    5279
CTETRA      8315       1    1303    1814    2464     618
CTETRA      8316       1    3384    6671    6596    6595
CTETRA      8317       1    3383    5296    5286    5294
CTETRA      8318       1    1814    2464     618     214
CTETRA      8319       1    6747    5305    6901    6902
CTETRA      8320       1    1661    3127    6449    6448
CTETRA      8321       1    3006    5305    5303    5301
CTETRA      8322       1    3385    5286    5296    5287
CTETRA      8323       1    1890    2642    2640    2515
CTETRA      8324       1    6781    4956    4914    2239
CTETRA      8325       1     632     514    2510     515
CTETRA      8326       1    2510    2877     514    2790
CTETRA      8327       1    2515    2510    2877     515
CTETRA      8328       1    2510    2511    2790    1174
CTETRA      8329       1    1762    1327    1448    2690
CTETRA      8330       1    1325    1329    1326    1328
CTETRA      8331       1    2664    1763     169    1639
CTETRA      8332       1    1325    1328    1848    2807
CTETRA      8333       1    1011     807    1010    1018
CTETRA      8334       1     406    4690    4705    4706
CTETRA      8335       1    1012     807    1010     282
CTETRA      8336       1    3386    4609    4638    4556
CTETRA      8337       1     616    1306     161      37
CTETRA      8338       1    1599    2328    1648    1595
CTETRA      8339       1     185    4657    4660    4650
CTETRA      8340       1    3387    5817    5818    5742
CTETRA      8341       1    1565    1019     886    1017
CTETRA      8342       1    3230    4642    4657    4650
CTETRA      8343       1    3388    5667    5743    5668
CTETRA      8344       1     911    4659    4656    4655
CTETRA      8345       1     884     896     885     890
CTETRA      8346       1    2645    1609    3389    2647
CTETRA      8347       1    1116    4662    4663    4652
CTETRA      8348       1    2460    5319    6909    6910
CTETRA      8349       1    1542    4635    4645    4646
CTETRA      8350       1    2152    5925    6001    5926
CTETRA      8351       1     886    1017    1564    1565
CTETRA      8352       1    1017    1018    1565    1019
CTETRA      8353       1     759    1090    1823     761
CTETRA      8354       1    1116    4652    4651    4662
CTETRA      8355       1    1838    1461    1846    1411
CTETRA      8356       1     954    1803    1683    1410
CTETRA      8357       1     133    6642    6718    6643
CTETRA      8358       1    2970    6744    6668    6743
CTETRA      8359       1    6791    4973    4957    6858
CTETRA      8360       1    2420    1059    1995    2537
CTETRA      8361       1     955    1216     956    1803
CTETRA      8362       1    1412    1413    1627     955
CTETRA      8363       1    1203    1204    1775    1627
CTETRA      8364       1     610    4752    4750    4751
CTETRA      8365       1    3390    5760    5684    5759
CTETRA      8366       1    1846    1270    1461    1880
CTETRA      8367       1    3391    5213    5227    5214
CTETRA      8368       1    1838    1839    1846    1875
CTETRA      8369       1     379    1004    1051    1415
CTETRA      8370       1    3392    5181    5165    5180
CTETRA      8371       1     829    1168    2994    1167
CTETRA      8372       1    1703    2496    1480    1431
CTETRA      8373       1    1652    1703    1651    1317
CTETRA      8374       1    3393    6602    6603    6527
CTETRA      8375       1    2637    2616    6754    6679
CTETRA      8376       1    1073    1380    1967    1036
CTETRA      8377       1    1479    1651    1480    1703
CTETRA      8378       1    1703    1651    1317    1479
CTETRA      8379       1    1703    1375    1910    1464
CTETRA      8380       1    1703    1375    1465    1430
CTETRA      8381       1    3394    3009    3395     712
CTETRA      8382       1    2444    1507     685    2786
CTETRA      8383       1    3396    4963    4964    4952
CTETRA      8384       1    3072    1631    1648    1018
CTETRA      8385       1    2653    3397    3389     303
CTETRA      8386       1    2239    5007    5016    5017
CTETRA      8387       1     353    4902    5074    4903
CTETRA      8388       1    1018    1647    3212    1631
CTETRA      8389       1    6862    6787    4975    4981
CTETRA      8390       1    3194    4522    4534    4523
CTETRA      8391       1    1018    1565    2749    3212
CTETRA      8392       1    6862    6787    4981    6786
CTETRA      8393       1    1018    1019    1010    1565
CTETRA      8394       1    3186    4536    4532    4531
CTETRA      8395       1    2012    1071    2502     876
CTETRA      8396       1     466    1015     733    1295
CTETRA      8397       1    1130    3398    1698    3399
CTETRA      8398       1    3367    4532    4527    4531
CTETRA      8399       1    1701    1737    3398    2771
CTETRA      8400       1     569     568     988    2145
CTETRA      8401       1    1701    2024    2771    3398
CTETRA      8402       1    2100    3258    3400    1228
CTETRA      8403       1     752    4536    4531    4535
CTETRA      8404       1    3194    4523    4534    4535
CTETRA      8405       1    3194    4535    4524    4523
CTETRA      8406       1    3376    6673    6749    6674
CTETRA      8407       1    1459    1574     802    1880
CTETRA      8408       1    1391     287    1218     737
CTETRA      8409       1     264     266     269     500
CTETRA      8410       1    1835     797      80    1963
CTETRA      8411       1     738     531    1345    1370
CTETRA      8412       1    2809    2572    1197     465
CTETRA      8413       1    2572    1197     465     555
CTETRA      8414       1    1195    1198     547    1668
CTETRA      8415       1    1195    1201    1198    1668
CTETRA      8416       1    2100    3389    1229     495
CTETRA      8417       1     358     500    1539    2914
CTETRA      8418       1    1581     359    1580    1579
CTETRA      8419       1    5415    4382    4381    6978
CTETRA      8420       1    3401    4392    4386    4391
CTETRA      8421       1     832     833    1718    2875
CTETRA      8422       1    2818    4305    4387    4367
CTETRA      8423       1     832    2875    3402    1665
CTETRA      8424       1     935     202    6619     374
CTETRA      8425       1    1801    4368    4367    4387
CTETRA      8426       1    6768    6881    5098    5109
CTETRA      8427       1    3403    3010    5293    5294
CTETRA      8428       1     983    1697    1820    2525
CTETRA      8429       1    3404    3405    3406    3407
CTETRA      8430       1    2712    4761    4764    4670
CTETRA      8431       1     832    1665    3402     985
CTETRA      8432       1     738    1345    1571    1370
CTETRA      8433       1     604     602    1471     837
CTETRA      8434       1     602     499    1643    1645
CTETRA      8435       1    3408    3409    6926    2926
CTETRA      8436       1    2016    4683    4287    4684
CTETRA      8437       1     601     602     604     837
CTETRA      8438       1    1311    3410    2789    3411
CTETRA      8439       1    3088    4685    4288    4289
CTETRA      8440       1    1725      36    1311    2073
CTETRA      8441       1    5409    4354    6971    6972
CTETRA      8442       1    1311    2995    2789    2073
CTETRA      8443       1    3412    4357    4354    4349
CTETRA      8444       1    1313    1314    1311    2511
CTETRA      8445       1    1057    4363    4361    4357
CTETRA      8446       1    6973    4345    2063    6972
CTETRA      8447       1    2511    1314    1311    2790
CTETRA      8448       1    2789    2511    3410    1311
CTETRA      8449       1    1776    1412    1627    1775
CTETRA      8450       1    3404    3252    1809    3250
CTETRA      8451       1    1351    1874    1982    1409
CTETRA      8452       1    1839    1982    1875    1840
CTETRA      8453       1    1841    2268    1982    1795
CTETRA      8454       1    1261    1257    1821    2494
CTETRA      8455       1     824    1551    1225    1224
CTETRA      8456       1    3382    2632    3010    5278
CTETRA      8457       1    1563    4614    4612    4575
CTETRA      8458       1    2027    4612    4618    4576
CTETRA      8459       1    1103     248     617    1108
CTETRA      8460       1    1104    1106    1313    1105
CTETRA      8461       1     763     648     522     764
CTETRA      8462       1     580     914    1485     251
CTETRA      8463       1    4422    4428    2551    4429
CTETRA      8464       1    1725     522     571     764
CTETRA      8465       1    2537    4874    2420    5385
CTETRA      8466       1    2422    5316    5329    5317
CTETRA      8467       1    3413    3414    3252    3415
CTETRA      8468       1    1944    2379    2390    1949
CTETRA      8469       1    1944    2379    1167    2390
CTETRA      8470       1    1552    5373    2420    5374
CTETRA      8471       1    2379    1925    2390    1949
CTETRA      8472       1     965     697    1208    1165
CTETRA      8473       1    1925    2379    2390    1202
CTETRA      8474       1    1202    1526    1239    2378
CTETRA      8475       1    3203    4351    4339    4338
CTETRA      8476       1    2171    5474    5399    5398
CTETRA      8477       1    3416    5553    5478    5477
CTETRA      8478       1    1627    1776    1625    1808
CTETRA      8479       1    1775    1776    1625    1627
CTETRA      8480       1     957    1412    1627     955
CTETRA      8481       1    1069    1237     882    1824
CTETRA      8482       1    1775    1203    1339    1337
CTETRA      8483       1    5401    6964    4337    6963
CTETRA      8484       1    1337    1203    2472    1249
CTETRA      8485       1    2422    1728    1729    5328
CTETRA      8486       1    3006    6748    6747    5305
CTETRA      8487       1    2292    3384    6745    6746
CTETRA      8488       1    2739    5920    5996    5921
CTETRA      8489       1     585     313     542     312
CTETRA      8490       1    2328    1595    1250    1648
CTETRA      8491       1     317     616     830    1746
CTETRA      8492       1     804    1458    1461     224
CTETRA      8493       1     317     830     923    1746
CTETRA      8494       1    3417    6141    6142    6066
CTETRA      8495       1    1582     453    1662    1962
CTETRA      8496       1     675     986    1047    1046
CTETRA      8497       1    2713    4684    4669    4683
CTETRA      8498       1    2893    6066    6067    5991
CTETRA      8499       1    1138     616     617      37
CTETRA      8500       1     617    1629     618     616
CTETRA      8501       1    1048    1019     890     897
CTETRA      8502       1    3418    4897    5134    5124
CTETRA      8503       1    1391    1370    1442    1568
CTETRA      8504       1    1566    1569    1567     806
CTETRA      8505       1     174     733     694     736
CTETRA      8506       1    1107    1158    1635    1108
CTETRA      8507       1    1107    2641    1105    1108
CTETRA      8508       1    3100    6746    6747    6671
CTETRA      8509       1    1414    1080    2673    1084
CTETRA      8510       1    1493    5234    5237    5209
CTETRA      8511       1    3100    2153    6671    6672
CTETRA      8512       1     576     577    1160    1736
CTETRA      8513       1    1107    1158    2516    1635
CTETRA      8514       1     448     447    1158    1024
CTETRA      8515       1    1734    3121    2641    2614
CTETRA      8516       1    3419    2153    1654    1685
CTETRA      8517       1    3420    4245    4246    4247
CTETRA      8518       1     169    2464    2417    1763
CTETRA      8519       1    2664    1449     169    1763
CTETRA      8520       1    6769    6879    6880    5085
CTETRA      8521       1    5416    4382    6978    6979
CTETRA      8522       1    2664    1639    2988    2592
CTETRA      8523       1    2823    3421    2956    2955
CTETRA      8524       1    3422    4389    4385    4388
CTETRA      8525       1    2823    2956    3423    3424
CTETRA      8526       1    2823    1928    2956    3424
CTETRA      8527       1    1928    2956    1256    2823
CTETRA      8528       1    2956    1738    1256    2317
CTETRA      8529       1    5426    4516    6989    4521
CTETRA      8530       1    1531    2881    3425    1152
CTETRA      8531       1     778    1751    1281     926
CTETRA      8532       1    3426    1058    2846     606
CTETRA      8533       1    1928    2881    1531    1532
CTETRA      8534       1     549    1102    1791     551
CTETRA      8535       1    1386    1387    2327    1384
CTETRA      8536       1    2327    3020    3055    3056
CTETRA      8537       1     431    1101    1224    1223
CTETRA      8538       1    2327     704    1250     702
CTETRA      8539       1     373    6768    6693    6692
CTETRA      8540       1    1664    3061    1789    1665
CTETRA      8541       1    2338    6770    6695    6694
CTETRA      8542       1    1697    1681    2524     985
CTETRA      8543       1     983    1667    2525    1820
CTETRA      8544       1    1697    1680    2524    1681
CTETRA      8545       1    5417    6980    4383    6979
CTETRA      8546       1    1697    2525    1680    2492
CTETRA      8547       1    2551    4420    4419    4422
CTETRA      8548       1    3262    2867    3089    3088
CTETRA      8549       1    1828    5063    5062    5066
CTETRA      8550       1    1240    2414    3427    2415
CTETRA      8551       1     203     483     323      44
CTETRA      8552       1    1048     890     896     897
CTETRA      8553       1    1552    5374    2420    5375
CTETRA      8554       1     343    1255     445     349
CTETRA      8555       1     789     843    1831     845
CTETRA      8556       1     842    1358    1946    1660
CTETRA      8557       1     842    2415    1706    1831
CTETRA      8558       1    1552    5375    2420    5376
CTETRA      8559       1    3428    5192    5191    5190
CTETRA      8560       1     842    2416    2414    2415
CTETRA      8561       1     558     559    1724    2247
CTETRA      8562       1     563    1463    1352    2933
CTETRA      8563       1    2319    5264    5216    5215
CTETRA      8564       1    1995    6914    6915    5379
CTETRA      8565       1    1321    1379    1799    1645
CTETRA      8566       1     996    1177      36    1314
CTETRA      8567       1    2420    5386    4874    4876
CTETRA      8568       1     673    2294    2355    2356
CTETRA      8569       1    3251    1809    1409    1410
CTETRA      8570       1    3324    1409    3251    2934
CTETRA      8571       1    3251    2934    1409     415
CTETRA      8572       1    3251    3324    3429    3242
CTETRA      8573       1    2062     107    5483    5482
CTETRA      8574       1    3251    1409    1810     415
CTETRA      8575       1    4354    4357    2062    4361
CTETRA      8576       1    3430    2172    3415    3414
CTETRA      8577       1    3251    1810    1809    3250
CTETRA      8578       1     619     282     238    1012
CTETRA      8579       1    1580     358     753    1539
CTETRA      8580       1    1164    2047    4326    4325
CTETRA      8581       1    3365    3369    3431    3157
CTETRA      8582       1    2102    4366    4365    6968
CTETRA      8583       1    4365     413    4360    4362
CTETRA      8584       1    2757    1980    2763    2773
CTETRA      8585       1    1305    2499     702    1597
CTETRA      8586       1    2954    1305    2499    3124
CTETRA      8587       1    3432    3283    3126    2954
CTETRA      8588       1    2954    2464    3124    3126
CTETRA      8589       1     279    1640    1595    1648
CTETRA      8590       1    1418    1305    2954    1447
CTETRA      8591       1     393      55    5104     126
CTETRA      8592       1     320     278     277     620
CTETRA      8593       1    1526    3433    2835    1133
CTETRA      8594       1    2044    5114    5121    5115
CTETRA      8595       1    5109    2855     909    5098
CTETRA      8596       1     373    2855    6693    6768
CTETRA      8597       1    2929    5092    5042    5091
CTETRA      8598       1     959     948     931     905
CTETRA      8599       1    1526    1937    1938    3433
CTETRA      8600       1    1937    1133    1526    1527
CTETRA      8601       1    5456    7019    4707    4712
CTETRA      8602       1    1834    2383    2531    1526
CTETRA      8603       1    3045    6812    6811    4240
CTETRA      8604       1    1671    2383    2378    2334
CTETRA      8605       1    2386     698     828    1167
CTETRA      8606       1    2825    6121    6045    6120
CTETRA      8607       1     927     698     961    1154
CTETRA      8608       1    3433    1937    1133    1526
CTETRA      8609       1    2118    2120    3024    3434
CTETRA      8610       1    2237    3435    3430    3436
CTETRA      8611       1     373    5098    2855    6768
CTETRA      8612       1    2118    3024    2639    3434
CTETRA      8613       1    2119    2118    2120    3024
CTETRA      8614       1    2118    2119    3208    3032
CTETRA      8615       1     458     376     482     457
CTETRA      8616       1     730    1750    1738    2546
CTETRA      8617       1     679     651     682    2263
CTETRA      8618       1    1134    3437    2844    1739
CTETRA      8619       1    5456    7019    5457    4707
CTETRA      8620       1    2855    6769    6768    5109
CTETRA      8621       1    1527     731    1928    1134
CTETRA      8622       1    2388    2638    1143    1145
CTETRA      8623       1    1134    1738    3424    3437
CTETRA      8624       1    1132    1671    1834    1526
CTETRA      8625       1    3430    3415    2172    3438
CTETRA      8626       1    1602    1268    2404    1955
CTETRA      8627       1    2959    4275    4270    4268
CTETRA      8628       1    3430    2237    3406    3439
CTETRA      8629       1    1363    1265    1832     844
CTETRA      8630       1    1612    1615    1616    1921
CTETRA      8631       1     373    6693    2855     374
CTETRA      8632       1     678    1920    2326    1921
CTETRA      8633       1    1920     349    2405    1603
CTETRA      8634       1    2779    1749     251    2264
CTETRA      8635       1     677    2263    2603     682
CTETRA      8636       1    3440    3441    3442    3443
CTETRA      8637       1    1811     275    1793     178
CTETRA      8638       1    3028    6772    6773    6697
CTETRA      8639       1    2140     175     178    1811
CTETRA      8640       1    5421    4481    6984    4488
CTETRA      8641       1    3142    6775    6699    6774
CTETRA      8642       1     300    2132    2157     175
CTETRA      8643       1    1811    1543    1243    1793
CTETRA      8644       1    5418    6981    4383    6980
CTETRA      8645       1    2698    5079    6775    6774
CTETRA      8646       1    2093    4383    4367    4368
CTETRA      8647       1    2732    2140     275    2729
CTETRA      8648       1    6767    6882    5098    6881
CTETRA      8649       1     176    1850     178     175
CTETRA      8650       1    3141    6699    6624    6623
CTETRA      8651       1    1690    2546    1135    2625
CTETRA      8652       1    3444    3445    3446    4717
CTETRA      8653       1      17     861     743     852
CTETRA      8654       1     829    2994    1168    1166
CTETRA      8655       1     787     927    1146    1145
CTETRA      8656       1    1764    2527    2507    2863
CTETRA      8657       1    1764    1927    2583    2507
CTETRA      8658       1     468    1131    1015    1072
CTETRA      8659       1    1672    2488    1700    1438
CTETRA      8660       1    1429    1427    1441    2534
CTETRA      8661       1    5462    4756    7024    7025
CTETRA      8662       1    5459    4706    7022    4689
CTETRA      8663       1     781    1272    1026    1275
CTETRA      8664       1    1834    1437    1927    2383
CTETRA      8665       1    3440    2285    3447    6017
CTETRA      8666       1     984     972    1270     226
CTETRA      8667       1     502    1267    1269    1342
CTETRA      8668       1    2285    6093    6017    3440
CTETRA      8669       1     421     625     821     721
CTETRA      8670       1    1617    1970    2898    1905
CTETRA      8671       1    1045     500    1538    1539
CTETRA      8672       1    3448    4766    4762    4774
CTETRA      8673       1    1823    1822    1262     759
CTETRA      8674       1    6018    2285    6093    6017
CTETRA      8675       1    1264    1269    1266    1993
CTETRA      8676       1    1285     733    1295    2709
CTETRA      8677       1    3440    6168    1033    6093
CTETRA      8678       1     696    1166     829    1168
CTETRA      8679       1    2236    4328    4432    4329
CTETRA      8680       1    1261    3295    3103    3104
CTETRA      8681       1    3288    4329    4344    4343
CTETRA      8682       1     694     696     827     829
CTETRA      8683       1     268     360     753    1026
CTETRA      8684       1     734     467     468     466
CTETRA      8685       1    3064    1578    6336    6335
CTETRA      8686       1    2947    4962    4955    4966
CTETRA      8687       1    3065    4964    4977    4978
CTETRA      8688       1    3449    5022    4919    4918
CTETRA      8689       1    2638    2792    1931    2388
CTETRA      8690       1     373     127    5097      49
CTETRA      8691       1    2638    2677    2676    3450
CTETRA      8692       1    1143    2792    2638    2388
CTETRA      8693       1    2450    2451    1987    2498
CTETRA      8694       1    2450    1985    2676    3451
CTETRA      8695       1     744    4272    6855    6854
CTETRA      8696       1    1988    2450    1954    2451
CTETRA      8697       1    2450    3311    2451    2498
CTETRA      8698       1    1859    2167    3311    3310
CTETRA      8699       1    6794    6856    4269    6837
CTETRA      8700       1    2450    2676    1954    2675
CTETRA      8701       1    1859    2450    2451    1954
CTETRA      8702       1    1871     489     494    1520
CTETRA      8703       1    3133    1827    3452    1852
CTETRA      8704       1     561    2358     564    2147
CTETRA      8705       1    2107    4277    4279    4278
CTETRA      8706       1    2107    4277    4271    4270
CTETRA      8707       1    3440    2287    3453    3441
CTETRA      8708       1    3147    4973    4967    4972
CTETRA      8709       1     379    1318     796    2697
CTETRA      8710       1    1753     736    1658     827
CTETRA      8711       1    3133    3452    1827    1004
CTETRA      8712       1    1498    1077     466    1072
CTETRA      8713       1     381    2872    1036    1415
CTETRA      8714       1    6916    5268    7065    6838
CTETRA      8715       1    1703    2496    1705    1652
CTETRA      8716       1    6815    6838    7065    6816
CTETRA      8717       1    5285    6743    6906    5295
CTETRA      8718       1    1312    1106     568    1174
CTETRA      8719       1    1890    2515    2510    2642
CTETRA      8720       1    1027    1677     310    1675
CTETRA      8721       1     301    3289    2555     640
CTETRA      8722       1     937     563    1352    1126
CTETRA      8723       1     520     572     764    1126
CTETRA      8724       1     566    2031    1131     876
CTETRA      8725       1     633    2012    1558    2013
CTETRA      8726       1    3440     699    6093    1033
CTETRA      8727       1    2638    1985    1168    3454
CTETRA      8728       1    5393    6955    6956    4676
CTETRA      8729       1     829    2992    1288    1290
CTETRA      8730       1    1183    1284    1273    1275
CTETRA      8731       1    2638    1985    2676    1954
CTETRA      8732       1    2992    1286    1933    1290
CTETRA      8733       1    1168    1931    1167    2388
CTETRA      8734       1    1168    1166    2994    1985
CTETRA      8735       1    2984    1817    2767    2955
CTETRA      8736       1    2767    2769    3455    2955
CTETRA      8737       1    3456    2316    2768    2767
CTETRA      8738       1    2767    3455    2768    3456
CTETRA      8739       1    6783    4976    6866    4962
CTETRA      8740       1    2767    2768    3455    2769
CTETRA      8741       1    4956    6782    4962    2291
CTETRA      8742       1    1593     898    1609    2654
CTETRA      8743       1     374    6619    6543    6618
CTETRA      8744       1    3255    4773    4782    4781
CTETRA      8745       1     902     967    5118    5114
CTETRA      8746       1    2190    5143    5142    5206
CTETRA      8747       1    3457    3458    2678    3346
CTETRA      8748       1    2654    3459    1120    1611
CTETRA      8749       1    2654    2415    3460    3461
CTETRA      8750       1    3346    3462    3463    3464
CTETRA      8751       1    1609    2618     880    2654
CTETRA      8752       1    2654    3465    1609    1611
CTETRA      8753       1     637    4890    4889    5258
CTETRA      8754       1    2654    3466    1120    3459
CTETRA      8755       1    2363     378    5046    5045
CTETRA      8756       1    2654    1593    3460    1594
CTETRA      8757       1    1560    2523    4938    3467
CTETRA      8758       1    2309    1614    1921    1616
CTETRA      8759       1    3468    5151    5152    4883
CTETRA      8760       1    2309    1614    1600    3469
CTETRA      8761       1    1613    1615    1333    2343
CTETRA      8762       1    3470    3471     710    3472
CTETRA      8763       1    3473    5152    4882    4883
CTETRA      8764       1    1615    1614    1613    1612
CTETRA      8765       1    1457    4253    4252    4260
CTETRA      8766       1    1600    1613    1332    1601
CTETRA      8767       1    1600    1613    3474    3469
CTETRA      8768       1    2880    2066    6723    2871
CTETRA      8769       1    1614    1615    2343    3475
CTETRA      8770       1    1232    2327    1309    1386
CTETRA      8771       1    1648    2333    1250    2328
CTETRA      8772       1    1962    1960    1647    2328
CTETRA      8773       1    3056    3055    1369    1368
CTETRA      8774       1    1386    2328    1250    1385
CTETRA      8775       1    2328    2333    1647    1648
CTETRA      8776       1    1994    2297    3476     255
CTETRA      8777       1     879    1994     256    1992
CTETRA      8778       1     877    1118     881     878
CTETRA      8779       1    3477    4671    4678    4677
CTETRA      8780       1    1706    1046     842     841
CTETRA      8781       1     882     881    1096    1824
CTETRA      8782       1     879     256    1993    1992
CTETRA      8783       1     882    1237     255     881
CTETRA      8784       1    1043    1365     756     882
CTETRA      8785       1    1944    2390    1936    1949
CTETRA      8786       1    3268    5274    5268    5267
CTETRA      8787       1    1936    1937    3478    1938
CTETRA      8788       1    1936    1938    1948    1949
CTETRA      8789       1    1936    1934    2391    3479
CTETRA      8790       1    1936    1945    1948    3478
CTETRA      8791       1    6762     538    2381    1828
CTETRA      8792       1     540    6685    6609    6684
CTETRA      8793       1    1936    3478    1934    3479
CTETRA      8794       1    1188    1194    3246    3129
CTETRA      8795       1    1183    1184     779    1181
CTETRA      8796       1    1181    1184    1188    1190
CTETRA      8797       1    1190    1723    1194    2659
CTETRA      8798       1    2533    2529    2512    2532
CTETRA      8799       1    5463    4737    7025    7026
CTETRA      8800       1    1136    2533    2530    2848
CTETRA      8801       1     172    4738    4756    4755
CTETRA      8802       1    2533    2833    2848    2835
CTETRA      8803       1    2017    4670    4683    4669
CTETRA      8804       1    2397    5048     373    6766
CTETRA      8805       1    2533    2836    3480    2532
CTETRA      8806       1    2533    3480    2531    2532
CTETRA      8807       1     788    1946     986    1046
CTETRA      8808       1    1946    3481    1660    1970
CTETRA      8809       1     842    1946    2414    1660
CTETRA      8810       1     986    1946    1970    1748
CTETRA      8811       1    1946    1047    3482    1748
CTETRA      8812       1    1358    2898    1970    1660
CTETRA      8813       1    3347    1870    3346    3463
CTETRA      8814       1    6868    6780    4914    6869
CTETRA      8815       1    2378    1938    1947    2821
CTETRA      8816       1    1526    3480    2835    3433
CTETRA      8817       1    1526    2378    2448    2821
CTETRA      8818       1    1526    2378    1938    1239
CTETRA      8819       1    1429    2352    1436    1435
CTETRA      8820       1    2334    2488    1672    2383
CTETRA      8821       1    2378    2448    2334    2383
CTETRA      8822       1    3016    5422    5498    5423
CTETRA      8823       1    2427    5053    5054    5050
CTETRA      8824       1    3463    3347    3462    3346
CTETRA      8825       1    2180    4306    4389    4387
CTETRA      8826       1    1202    1925    2378    1239
CTETRA      8827       1    2448    2378    1526    2383
CTETRA      8828       1    2417     862    1629    1639
CTETRA      8829       1    1639    1636    1638    2592
CTETRA      8830       1    1639     169    2988     171
CTETRA      8831       1    3483    4317    4308    4309
CTETRA      8832       1     540    6610    6609    6685
CTETRA      8833       1    1081     862    1763    1639
CTETRA      8834       1    1628    1629    1639    1637
CTETRA      8835       1    1346    1519    1525    1349
CTETRA      8836       1    1525    1519    1149    1521
CTETRA      8837       1     305    4735    4718    4734
CTETRA      8838       1    1525    2964    1533    2962
CTETRA      8839       1    3467    4935    4937    4932
CTETRA      8840       1    1525    1522    1540    1541
CTETRA      8841       1    2981    3484    2767    3456
CTETRA      8842       1    1524    1521    1522    1533
CTETRA      8843       1    1521    1522    1533    1525
CTETRA      8844       1    3485    2470    3486     418
CTETRA      8845       1    6759    4889    6890    6758
CTETRA      8846       1    1644    5222    5283    5282
CTETRA      8847       1    1525    1815    2962    1816
CTETRA      8848       1    2663    3487    1290    2660
CTETRA      8849       1    1700    1740    2663    1672
CTETRA      8850       1    1700    3488    1699    2487
CTETRA      8851       1    1740    1286    2663    1925
CTETRA      8852       1    3489    4896    5234    5209
CTETRA      8853       1    2663    1290    1286    2660
CTETRA      8854       1    2663    3362    1925    1286
CTETRA      8855       1    1841    1843     583    3490
CTETRA      8856       1    2437    4248    4259    4258
CTETRA      8857       1    1846    1408    1682    1874
CTETRA      8858       1    6802    6828    6829    4260
CTETRA      8859       1    1366    4707    4709    4712
CTETRA      8860       1    5454    4714    4715    7017
CTETRA      8861       1    1457    4258    4252    4253
CTETRA      8862       1    3082    3491    2960    3492
CTETRA      8863       1    3346    3493    1878    3494
CTETRA      8864       1    1247    5240    5237    5236
CTETRA      8865       1    1843     313     583    3156
CTETRA      8866       1      55     127     125      49
CTETRA      8867       1    1843    3152    1911    3156
CTETRA      8868       1    2260    6944    2261    6943
CTETRA      8869       1     229     224    1689    1411
CTETRA      8870       1     313    1911    1843    1689
CTETRA      8871       1    3026    2641    1635     247
CTETRA      8872       1    3026    2641    2639    3023
CTETRA      8873       1    3215    5548    5473    5472
CTETRA      8874       1      75    6688    6613    6612
CTETRA      8875       1    3026    3121    2641    3023
CTETRA      8876       1    3026    2641    2614    1635
CTETRA      8877       1     620     279    1507    1417
CTETRA      8878       1     950    2894    5019    5015
CTETRA      8879       1    4887    2370    3495    3054
CTETRA      8880       1     685    1422    2444    3496
CTETRA      8881       1    2943    4886    4887    5148
CTETRA      8882       1    3496     685     691    2787
CTETRA      8883       1    3497    4431    4424    4430
CTETRA      8884       1     685    1641     686     684
CTETRA      8885       1    1640     685     279    1507
CTETRA      8886       1    3498    2273    2278    2276
CTETRA      8887       1    2273     750    1161    1976
CTETRA      8888       1    3499    4425    4421    4426
CTETRA      8889       1    1670    6007    5932    5931
CTETRA      8890       1    2273     750    2276    3500
CTETRA      8891       1    2106    4261    4266    4262
CTETRA      8892       1    3501    2273    2278    3498
CTETRA      8893       1    3502    3503    3504    3505
CTETRA      8894       1    2880    4276    3083    2107
CTETRA      8895       1    2273     750    3500    1161
CTETRA      8896       1    3506    1829     718    1830
CTETRA      8897       1    5150    5147    3507    5144
CTETRA      8898       1    3508    3509    3510    3511
CTETRA      8899       1    1830    3472     710    3506
CTETRA      8900       1    3470    1830    3472     710
CTETRA      8901       1    3512    1830    1378    3506
CTETRA      8902       1    3291    4464    4513    4514
CTETRA      8903       1    2710    4513    4464    4465
CTETRA      8904       1    3292    4462    4546    4463
CTETRA      8905       1     283    7039    4798    4799
CTETRA      8906       1    3506    1830    3472    3512
CTETRA      8907       1    3513     718    1826     725
CTETRA      8908       1    3506     718     725     710
CTETRA      8909       1    3279    2607    3345     962
CTETRA      8910       1    2607     564    3279     190
CTETRA      8911       1      76    4260    4265    4261
CTETRA      8912       1    3279    2024    3278    2771
CTETRA      8913       1    3514     596    1997    1783
CTETRA      8914       1    2024    2147    2358     570
CTETRA      8915       1     632     569    1707    1890
CTETRA      8916       1     560     869     868    1462
CTETRA      8917       1    1525    1816    2962    1533
CTETRA      8918       1    2874    4286    4459    4460
CTETRA      8919       1     851    1374     591     292
CTETRA      8920       1    1157    1348    1346    1187
CTETRA      8921       1    1819    1815    1525    1816
CTETRA      8922       1    3509    3328    3513    3511
CTETRA      8923       1    1815    2965    1816    1856
CTETRA      8924       1    3291    4463    4464    4514
CTETRA      8925       1    1815    1816    2965    2962
CTETRA      8926       1    1104    1314    1311    1313
CTETRA      8927       1    1311    3411    2789    2995
CTETRA      8928       1    1311    3410    1894    1313
CTETRA      8929       1     950    6777    6776    6872
CTETRA      8930       1    3112    6750    5299    5290
CTETRA      8931       1    3410    1313    2908    1894
CTETRA      8932       1    3358    6599    6524    6523
CTETRA      8933       1    1546    3292    4462    4546
CTETRA      8934       1    1127    3120    1260    1364
CTETRA      8935       1    1650    3515    1663    2220
CTETRA      8936       1    4529    3113    4515    4526
CTETRA      8937       1    3349    2049    3351    1747
CTETRA      8938       1    1259    3103    3295    1200
CTETRA      8939       1    1650    2795    3516    3120
CTETRA      8940       1    1650    2795    2220    3516
CTETRA      8941       1    2956    2766    2955    3421
CTETRA      8942       1    1564    1650    1364    1662
CTETRA      8943       1    1650    1662    3515    2795
CTETRA      8944       1    1589    1786    3511    1377
CTETRA      8945       1    1588     526     982    1405
CTETRA      8946       1     522     982     439     571
CTETRA      8947       1    1589    1786    1782    3517
CTETRA      8948       1    1589    1782    1786    1785
CTETRA      8949       1    2766    3518    2955    3421
CTETRA      8950       1    1124    1591    3031    2589
CTETRA      8951       1    2594    4780     793    4781
CTETRA      8952       1    3519    3030    3341    2997
CTETRA      8953       1    2334    2336    2335    2447
CTETRA      8954       1    2378    2821    2334    2448
CTETRA      8955       1    7017    4715    5454    7016
CTETRA      8956       1    2334    1435    2335    2488
CTETRA      8957       1     950    6777    6872    5019
CTETRA      8958       1    1671    2377    2378    1925
CTETRA      8959       1    2334    2383    1435    2488
CTETRA      8960       1     269    1324     506     500
CTETRA      8961       1    1268    3520    2404    2706
CTETRA      8962       1     789     363     841     364
CTETRA      8963       1    1139    2845    2855     127
CTETRA      8964       1    2397    1140     373      49
CTETRA      8965       1    1603    1268    2914    2404
CTETRA      8966       1    1267    2559    1268    2703
CTETRA      8967       1    5424    4504    4473    6987
CTETRA      8968       1    3521    2180    2818    3014
CTETRA      8969       1    1268    1538    3520    2559
CTETRA      8970       1    1264    2266    1992    2267
CTETRA      8971       1    3016    4488    4485    4486
CTETRA      8972       1    1265    1268    1955    1266
CTETRA      8973       1    1268    2706    2404    1955
CTETRA      8974       1    6775    5079    6874    6774
CTETRA      8975       1    3016    4485    4474    4486
CTETRA      8976       1    5427    6989    6990    4521
CTETRA      8977       1    3522    4624    4553    4296
CTETRA      8978       1    1262    3218    1823    1090
CTETRA      8979       1    2125    4298    4297    4745
CTETRA      8980       1     761     762     956    2485
CTETRA      8981       1    6773    5077    6875    6876
CTETRA      8982       1    1678    1683    1697    2492
CTETRA      8983       1    5425    4504    6987    6988
CTETRA      8984       1     762     956    1806    1803
CTETRA      8985       1    1582    1017    1962    1565
CTETRA      8986       1    4308    3523    3524    3483
CTETRA      8987       1    3525    5116    5137    4908
CTETRA      8988       1    1203     253     254    1452
CTETRA      8989       1    1412    1413    1409    2268
CTETRA      8990       1    1203     254    2472    1452
CTETRA      8991       1    1069    2299    1824     956
CTETRA      8992       1    2479    3056    2433    3097
CTETRA      8993       1    3518    3349    2765    3075
CTETRA      8994       1     825     839    1101     462
CTETRA      8995       1     438    1223    2073    1222
CTETRA      8996       1     434     646     835     324
CTETRA      8997       1    2144    4218    4222    4217
CTETRA      8998       1     981     982    1587    1770
CTETRA      8999       1    2572    2876     550     435
CTETRA      9000       1    1790     435     550    2453
CTETRA      9001       1    6803    4260    4252    6828
CTETRA      9002       1     452     465     545     548
CTETRA      9003       1     255    1238    1214    2297
CTETRA      9004       1    1213    1185    1756    1761
CTETRA      9005       1    5485    2018    5484    5409
CTETRA      9006       1    1213    1185    1761    1097
CTETRA      9007       1    1213    1216    1824    1237
CTETRA      9008       1    4674    2421    3111    4722
CTETRA      9009       1    3477    4677    4678    4285
CTETRA      9010       1    2844    2544    3526    2848
CTETRA      9011       1    1134    1739    2844    1133
CTETRA      9012       1    3527    4299    4760    4773
CTETRA      9013       1    1136    2844    1739    1133
CTETRA      9014       1    2844    2884    2847    3528
CTETRA      9015       1    2844    2833    2848    3526
CTETRA      9016       1    2126    4745    4759    4760
CTETRA      9017       1     950    2270    5015    4902
CTETRA      9018       1    2844    2833    2835    2848
CTETRA      9019       1    1140    2387    6691     742
CTETRA      9020       1    3109    5509    5434    5433
CTETRA      9021       1    3051    4655    4639    4654
CTETRA      9022       1    5438    7000    7001    4654
CTETRA      9023       1    3349    2765    3075    3529
CTETRA      9024       1    1341    1340    3261    1338
CTETRA      9025       1    2729    1341    1142     312
CTETRA      9026       1    1397    5283    5275    5276
CTETRA      9027       1    1341    3282     312    2732
CTETRA      9028       1    1319    1320    2451    1652
CTETRA      9029       1    1319    2496    3108    2495
CTETRA      9030       1    1319    3108    2496    1652
CTETRA      9031       1    1651    1858    1480    2496
CTETRA      9032       1    2496    3108    3530    3531
CTETRA      9033       1    2496    1705    1652    3531
CTETRA      9034       1    2496    1431    3531    3530
CTETRA      9035       1    1771    1781     973    1783
CTETRA      9036       1    3532    4782    4773    4772
CTETRA      9037       1    5069    2338    6771    3130
CTETRA      9038       1    1786    1377    3533    3508
CTETRA      9039       1    1771     629    1774    1787
CTETRA      9040       1    1786    1781    3534     629
CTETRA      9041       1    1786    3517    3534    1782
CTETRA      9042       1    1786    3533    1774     629
CTETRA      9043       1     860    3327    1646    3535
CTETRA      9044       1    2282    1322    3294     860
CTETRA      9045       1    2282    3505     860     810
CTETRA      9046       1    2282    3503    3036    3509
CTETRA      9047       1    2282    3536    3036    3503
CTETRA      9048       1    3505     860    3327    2282
CTETRA      9049       1    3537    5943    3538    5942
CTETRA      9050       1    3539    4732    4671    4764
CTETRA      9051       1    2017    4683    4670    4677
CTETRA      9052       1    2791    2650    1660    2341
CTETRA      9053       1    1955    1265    1832    1363
CTETRA      9054       1    1332    2341    2901    1613
CTETRA      9055       1    1098    1043    1046    1706
CTETRA      9056       1    2544    1739    3437    2546
CTETRA      9057       1    2544    3540    3541    1694
CTETRA      9058       1    2544    3526    3542    3437
CTETRA      9059       1    2544    3541    2848    1694
CTETRA      9060       1    3291    4515    4463    4514
CTETRA      9061       1    2544    2848    1739    1694
CTETRA      9062       1     593     521    2995    3411
CTETRA      9063       1    3336    3339    3265    3337
CTETRA      9064       1    3410    2908    1313    2642
CTETRA      9065       1    1725    2790    2789    1311
CTETRA      9066       1    3349    3543    2049    3075
CTETRA      9067       1    2789    2073    3544    1222
CTETRA      9068       1    1725    2789    1222    2073
CTETRA      9069       1    2477    2711    3539    2712
CTETRA      9070       1     573     574    3545    1222
CTETRA      9071       1    3356    1916    3546    2743
CTETRA      9072       1    5450    7013    4562    7012
CTETRA      9073       1    3356    1695    3357    3547
CTETRA      9074       1    3356    1695    3548    3549
CTETRA      9075       1    3356    3546    3549    3548
CTETRA      9076       1    5449    5450    3073    4562
CTETRA      9077       1    1117    1120    3459    1611
CTETRA      9078       1    1117    1761     878    1758
CTETRA      9079       1     255    3476     878    1758
CTETRA      9080       1     761    1091    1096    1092
CTETRA      9081       1    1120     878    3465    1117
CTETRA      9082       1    1117    1120    1611    3465
CTETRA      9083       1     670    2355     673    2354
CTETRA      9084       1    1625    1775    1203    1339
CTETRA      9085       1    2122     672    2294    1575
CTETRA      9086       1    2122    2186     767    2694
CTETRA      9087       1    2294    2287    1066    3550
CTETRA      9088       1    2294    2295    2287    3453
CTETRA      9089       1    2294    2295    3453    2694
CTETRA      9090       1    5391    6954    4725    7069
CTETRA      9091       1    1003     768     672      69
CTETRA      9092       1    1680    2756    1679    3551
CTETRA      9093       1    1680    2756     815    2524
CTETRA      9094       1    1697    2524    1680    2525
CTETRA      9095       1    1680    1679    2756    1681
CTETRA      9096       1    2084    4604    4630    4629
CTETRA      9097       1    1939    2336    2449    2374
CTETRA      9098       1    3138    4610    4611    4615
CTETRA      9099       1    6772    6877    5084    6876
CTETRA      9100       1     447    1024    1381    1158
CTETRA      9101       1    5423    6986    4485    6985
CTETRA      9102       1    2378    2334    1947    2377
CTETRA      9103       1    2383    1927    2532    2371
CTETRA      9104       1    1134    1133    2844    2884
CTETRA      9105       1    1357    1034    1699    3488
CTETRA      9106       1    2067    2592    1427    2591
CTETRA      9107       1    2383    2532    1927    2531
CTETRA      9108       1    3251    1410    3181    1803
CTETRA      9109       1    1683    3181    1895    1410
CTETRA      9110       1    2497    3333    3108    2498
CTETRA      9111       1    2451    1987    1652    1320
CTETRA      9112       1    1988    1316    1320    2451
CTETRA      9113       1    1319     848     849     964
CTETRA      9114       1     848    1217     390    2214
CTETRA      9115       1    3552    1903    3553    3554
CTETRA      9116       1    3437    3423    3555    3552
CTETRA      9117       1    2215    4546    4633    4547
CTETRA      9118       1    2196    4546    4545    4625
CTETRA      9119       1    2056    4639    4640    4625
CTETRA      9120       1    3552    2956    3424    3423
CTETRA      9121       1    3552    3555    3542    3351
CTETRA      9122       1    3552    3554    3351    3542
CTETRA      9123       1    3552    3553    2956    3351
CTETRA      9124       1    3102    2279    1199    2223
CTETRA      9125       1     196    5106    5102    5088
CTETRA      9126       1    1261    1263    3004    3093
CTETRA      9127       1    3556    6783    6784    6708
CTETRA      9128       1    2222    4472    4310    4309
CTETRA      9129       1    1259    3103    1199    2494
CTETRA      9130       1    6808    4227    4235    6823
CTETRA      9131       1    1259    3295    1261    3120
CTETRA      9132       1    2772    4226    4227    4222
CTETRA      9133       1    2772    4226    4218    4219
CTETRA      9134       1    3103    1200    2279    2574
CTETRA      9135       1    2106    4267    4266    4274
CTETRA      9136       1    3102    2494    3103    3093
CTETRA      9137       1    3103    3295    1200    2574
CTETRA      9138       1    3239    4262    4263    4255
CTETRA      9139       1    3290    4610    4620    4611
CTETRA      9140       1     529    3487    3557    1290
CTETRA      9141       1    1290    1296    3558    1288
CTETRA      9142       1     314    3282     816    2732
CTETRA      9143       1    1290     529    3487    1943
CTETRA      9144       1    1288    1296    1285    1290
CTETRA      9145       1     188    4645    4651    4646
CTETRA      9146       1    2663    1286    1290    3362
CTETRA      9147       1    1290    3362    1933    1943
CTETRA      9148       1     188    4646    1542    4645
CTETRA      9149       1    1290     829    2992    1286
CTETRA      9150       1     913    1915    1485     914
CTETRA      9151       1     583     818    3490    3156
CTETRA      9152       1    2565    1137     958     621
CTETRA      9153       1    2288    1137     958    2565
CTETRA      9154       1    1425    1942    2442    1422
CTETRA      9155       1    1618    1420    1780    1421
CTETRA      9156       1    1553    5588    5513    5512
CTETRA      9157       1    2770    3559    3560    3561
CTETRA      9158       1    5180    2911    2146    5179
CTETRA      9159       1    2288    1424    1942    2442
CTETRA      9160       1    1366    4709    4707    4703
CTETRA      9161       1    2497    3333    2167    2518
CTETRA      9162       1    3562    3563    3564    2167
CTETRA      9163       1    2167    1860    2626    2627
CTETRA      9164       1    6769    5085    6880    5109
CTETRA      9165       1    2167    2627    1209    1860
CTETRA      9166       1    1859    1209    3310    2675
CTETRA      9167       1    1859    1861    2167    1209
CTETRA      9168       1    2167    2626    3562    3310
CTETRA      9169       1    1695    2547    2548    3548
CTETRA      9170       1    1693    2548    3540    1694
CTETRA      9171       1    3523    4477    4476    4497
CTETRA      9172       1    5420    4483    6983    4481
CTETRA      9173       1    1693    3540    2548    2547
CTETRA      9174       1    1692    1691    1695    1916
CTETRA      9175       1    1690    2546    2625    1694
CTETRA      9176       1     906    2012    3565     974
CTETRA      9177       1    3566     974     906    3567
CTETRA      9178       1    2012    2014    3565    1020
CTETRA      9179       1    6746    6745    5304    6903
CTETRA      9180       1    3051    4654    4658    4655
CTETRA      9181       1    1532    2881    1152    1528
CTETRA      9182       1    2956    2317    2955    2766
CTETRA      9183       1    3552    2956    1738    3424
CTETRA      9184       1    1547    5512    5437    5436
CTETRA      9185       1    2056    4545    4544    4639
CTETRA      9186       1     445     349    1920    1603
CTETRA      9187       1     677    2601    2317    2603
CTETRA      9188       1    2602    2760    3475    1615
CTETRA      9189       1    2780    2263    2602    1615
CTETRA      9190       1    5435    6998    4510    6997
CTETRA      9191       1    1614    2760    3568    2759
CTETRA      9192       1    2292    6746    6745    5304
CTETRA      9193       1    3475    3568    3469    1614
CTETRA      9194       1    6747    6748    6901    5305
CTETRA      9195       1    1614    1615    2760    1921
CTETRA      9196       1    1556    3156    3152    3234
CTETRA      9197       1     677     682    2603    2317
CTETRA      9198       1    1445    6564    6489    6488
CTETRA      9199       1    1333    2343    1615    2830
CTETRA      9200       1    2386    2388    3297    1154
CTETRA      9201       1    1155    1151    1144    1153
CTETRA      9202       1    1153    1151    1144    3297
CTETRA      9203       1    2386    1167    1931    2388
CTETRA      9204       1    3297    2792    3569    1151
CTETRA      9205       1     584    1340     586    3262
CTETRA      9206       1    3297    3569    2792    3570
CTETRA      9207       1    3297    2792    1931    3570
CTETRA      9208       1    1859    2167    1861    2497
CTETRA      9209       1    6764    6885    5060    5055
CTETRA      9210       1    1209    1207    1450    1210
CTETRA      9211       1    1258    2494    1667    1821
CTETRA      9212       1    3171    6712    6637    6636
CTETRA      9213       1     591     589     592    2937
CTETRA      9214       1    1207    1450    1190    1451
CTETRA      9215       1    3571    3572    3065    3062
CTETRA      9216       1    3171    6710    6711    6635
CTETRA      9217       1    1988    2450    2451    1987
CTETRA      9218       1    1890     650    1174    2510
CTETRA      9219       1    1206     315     787    1208
CTETRA      9220       1    1475    6528    6453    6452
CTETRA      9221       1    1206    1184     787    1183
CTETRA      9222       1    6751    5290    5275    6898
CTETRA      9223       1    1284    3015    1273    1675
CTETRA      9224       1    3015    3018    1273    2134
CTETRA      9225       1    3015    2134    1677    2937
CTETRA      9226       1    2058    2065    5773    5698
CTETRA      9227       1    2576    2578    3573    3162
CTETRA      9228       1    3217    5622    5547    5546
CTETRA      9229       1     177     817     816    3289
CTETRA      9230       1    2473    5927    6003    5928
CTETRA      9231       1    1838    1841    1840    1843
CTETRA      9232       1    2576    1847    2693    3163
CTETRA      9233       1    2576    3163    3573    3574
CTETRA      9234       1    2576    3575    3576    3574
CTETRA      9235       1    7011    4565    4568    5448
CTETRA      9236       1    2576    1847    2567    2693
CTETRA      9237       1    1420     689    1970    1393
CTETRA      9238       1     691    1420    1909    1393
CTETRA      9239       1     691     684     412    2787
CTETRA      9240       1     685     684     691    2787
CTETRA      9241       1    3527    4772    4773    4760
CTETRA      9242       1    6680     971    6604    6605
CTETRA      9243       1    2800    3273    3577    3578
CTETRA      9244       1    2800    3578    3579    3580
CTETRA      9245       1    2637    6755    6756    6680
CTETRA      9246       1    3580    2800    1423    3579
CTETRA      9247       1    1553    5513    5438    5437
CTETRA      9248       1    1915    2800    2742    1421
CTETRA      9249       1    2800    1423    1421    2803
CTETRA      9250       1    3184    4465    4512    4513
CTETRA      9251       1    3110    4526    4529    4530
CTETRA      9252       1    1915    3273    2800    3581
CTETRA      9253       1    2800    3273    3582    3581
CTETRA      9254       1    2548    3583    3547    3584
CTETRA      9255       1    3026    3121    3023    3046
CTETRA      9256       1    3121    2640    2641    3023
CTETRA      9257       1    3121    3023    3585    3205
CTETRA      9258       1    1546    4546    4462    4545
CTETRA      9259       1    3292    4547    4464    4463
CTETRA      9260       1    1544    1554    3586    3587
CTETRA      9261       1    3053    3121    3588    1735
CTETRA      9262       1    3121    1735    3053    2614
CTETRA      9263       1    1734    3121    2614    1735
CTETRA      9264       1    6751    6898    5275    6897
CTETRA      9265       1    2632    5292    5278    5277
CTETRA      9266       1    3010    5293    5294    5279
CTETRA      9267       1     168    1848    1971     169
CTETRA      9268       1    6820    4240    6821    6810
CTETRA      9269       1    1848    2805    3226    3589
CTETRA      9270       1    6810    4240    6821    4241
CTETRA      9271       1    2808    2988     169    3590
CTETRA      9272       1     678     682     677    2317
CTETRA      9273       1    2144    4218    4217    4248
CTETRA      9274       1     986    1046     675     243
CTETRA      9275       1     747     753     754    1539
CTETRA      9276       1    1539    1537    2132    1536
CTETRA      9277       1    1485    1942    2288     958
CTETRA      9278       1    2637    6756    6681    6680
CTETRA      9279       1     944    4994    4995    5004
CTETRA      9280       1    1600    1363     844    1334
CTETRA      9281       1    1045     501    1141    1538
CTETRA      9282       1     853    1448    1447     621
CTETRA      9283       1    1486    2527    2625    2530
CTETRA      9284       1     839     140     830    1055
CTETRA      9285       1    3102    2573    3093    2655
CTETRA      9286       1     680    2245    5254    5259
CTETRA      9287       1    3591     628    3592    3274
CTETRA      9288       1    1199    1196    1195    1197
CTETRA      9289       1    1199    1197    2224    1196
CTETRA      9290       1    1100    1199    1353    2494
CTETRA      9291       1    3102    1353    1199    2494
CTETRA      9292       1    1259    1199    3103    1200
CTETRA      9293       1    1261    3295    3153    3120
CTETRA      9294       1    3203    4350    4358    4351
CTETRA      9295       1    3102    1199    3103    2494
CTETRA      9296       1    1199    1200    2224    2279
CTETRA      9297       1    1873     573    1222     571
CTETRA      9298       1    6754    5256    6755    6894
CTETRA      9299       1    2338    2855     202     909
CTETRA      9300       1     939    5117    5090    5118
CTETRA      9301       1     764     650    1126     514
CTETRA      9302       1    1561    4941    4942    4927
CTETRA      9303       1    1695    1691    2547    3549
CTETRA      9304       1     469     467    1753     466
CTETRA      9305       1    1590    1924     573    2723
CTETRA      9306       1    1056    1802     490    1345
CTETRA      9307       1    1124    2932    2584    1125
CTETRA      9308       1    2589    1124    2932    2584
CTETRA      9309       1    3320    4402    4398    4401
CTETRA      9310       1    3593    4414    4420    4421
CTETRA      9311       1    2411    4406    4410    4407
CTETRA      9312       1    1588    1124    1590    1924
CTETRA      9313       1    1960    2329    3211    1647
CTETRA      9314       1    2329    3594    1647    2333
CTETRA      9315       1    2329    3595    3596    3597
CTETRA      9316       1    2329    1647    3594    3211
CTETRA      9317       1    3393    6677    6678    6602
CTETRA      9318       1    2921    5479    5480    5404
CTETRA      9319       1     840      90      95      93
CTETRA      9320       1    1667    2494    1100    1664
CTETRA      9321       1    2291    2348    4954    4916
CTETRA      9322       1     991    2284    2337    6483
CTETRA      9323       1    2947    4962    4966    4976
CTETRA      9324       1    1667    2525    2493    1666
CTETRA      9325       1    1664    1353    3060    2494
CTETRA      9326       1    1667    1821    2493    1820
CTETRA      9327       1    3150    4979    4965    4978
CTETRA      9328       1    2950    4918    4953    4917
CTETRA      9329       1     339     335    3557    3598
CTETRA      9330       1     832    1789    2875    1665
CTETRA      9331       1     983    1666    1665    2525
CTETRA      9332       1    1664    1667     834    1100
CTETRA      9333       1     595    5244    1099    5248
CTETRA      9334       1    1801    4368    4387    4388
CTETRA      9335       1    3060    1789    2809    1353
CTETRA      9336       1    1937    3433    1133    2884
CTETRA      9337       1    1937    3433    2826    2242
CTETRA      9338       1    4914    6869    6780    5016
CTETRA      9339       1    6781    6782    6867    4956
CTETRA      9340       1    3532    4783    4782    4772
CTETRA      9341       1    1934    1527    2882    1937
CTETRA      9342       1    1937    2882    1934    3478
CTETRA      9343       1    3599    6844    5175    6843
CTETRA      9344       1    3280    2944    3600    5202
CTETRA      9345       1    2029    3001    1926    3141
CTETRA      9346       1      80    1963    1065    2439
CTETRA      9347       1    1065    2286    1066    1068
CTETRA      9348       1    1068    1067    1065    1051
CTETRA      9349       1    1065    1067    1066    1575
CTETRA      9350       1    1543    2140    2132    1537
CTETRA      9351       1    6804    6803    4252    6827
CTETRA      9352       1    1850     314    1813    1849
CTETRA      9353       1    5429    6992    4536    4534
CTETRA      9354       1    1179    4891    5247    4892
CTETRA      9355       1    1399     176    1850    1849
CTETRA      9356       1    3049    5250    3091     688
CTETRA      9357       1    3292    4546    4547    4463
CTETRA      9358       1    2452    4936    4934    4935
CTETRA      9359       1    2307    4930    4922    4923
CTETRA      9360       1    1496    1850    1793    1849
CTETRA      9361       1    3357    3547    3601    3144
CTETRA      9362       1    2134    3602     176    1851
CTETRA      9363       1    1811    1793    2134    1850
CTETRA      9364       1    2548    3541    3540    1694
CTETRA      9365       1    3603    5031    5034    4992
CTETRA      9366       1    2878    5031    4991    5025
CTETRA      9367       1    2548    2547    3604    3548
CTETRA      9368       1    1059    5372    5360    5359
CTETRA      9369       1    1850    1813     314     178
CTETRA      9370       1    2676    3451    3605    3606
CTETRA      9371       1    2676    3605    3451    3454
CTETRA      9372       1    2338    1049    5069    5085
CTETRA      9373       1     188    4650    4651    4645
CTETRA      9374       1    2676    1708    3607    2677
CTETRA      9375       1    1211    1708    2676    2677
CTETRA      9376       1    1722    2110    3608    2111
CTETRA      9377       1    1211    2638    2677    2676
CTETRA      9378       1     187    1541    3230     188
CTETRA      9379       1    3609    4632    4569    4633
CTETRA      9380       1    2638    3454    2676    1985
CTETRA      9381       1    3610    3611    5119    5126
CTETRA      9382       1    2450    1954    2676    1985
CTETRA      9383       1     401    4768    4769    4767
CTETRA      9384       1    1713    6605    6529    6604
CTETRA      9385       1    1211    2638    2676    1954
CTETRA      9386       1    1695    3357    3547    2548
CTETRA      9387       1    1291    2459    1292    2692
CTETRA      9388       1    2345    3612    3613    2985
CTETRA      9389       1    1007    3614    1886    1863
CTETRA      9390       1    6263    3615    2376    6264
CTETRA      9391       1    1007    1863    1864    3616
CTETRA      9392       1    1007    3614    3617    3452
CTETRA      9393       1    2765    2760    3618    2603
CTETRA      9394       1    3619    4988    4985    4984
CTETRA      9395       1    3254    5142    5143    5148
CTETRA      9396       1    2717    2601    2760    2765
CTETRA      9397       1    2717    2765    3620    2770
CTETRA      9398       1    1690    2625    1135    1692
CTETRA      9399       1    3621    6846    5179    6845
CTETRA      9400       1    2955    2984    3484    2767
CTETRA      9401       1    2316    2317    2767    1817
CTETRA      9402       1    3468    5146    5152    5151
CTETRA      9403       1    2766    2603    2317    2601
CTETRA      9404       1    2438    1959    2575    1957
CTETRA      9405       1    3622    4699    4695    4296
CTETRA      9406       1    2544    2848    3541    3526
CTETRA      9407       1     649    2648    3390    2341
CTETRA      9408       1    1359    2898    2902    2782
CTETRA      9409       1    2341    1613    2831    2342
CTETRA      9410       1    1553    5513    5437    5512
CTETRA      9411       1    7005    4663    7006    5443
CTETRA      9412       1     843    1660    1831    2650
CTETRA      9413       1    3074    4662    4660    4664
CTETRA      9414       1     185    4664    4660    4659
CTETRA      9415       1    3623    6041    5966    5965
CTETRA      9416       1    3624    2514    3541    2848
CTETRA      9417       1    2339    2901    2648    2341
CTETRA      9418       1    1510    1362    3293     187
CTETRA      9419       1    6694    2338    2855     202
CTETRA      9420       1    2079    4575    4598    4597
CTETRA      9421       1    3390    2648    3170    2341
CTETRA      9422       1    1793    1850    1813    1849
CTETRA      9423       1    1429    1434    1426    2352
CTETRA      9424       1    2154    4896    5124    5110
CTETRA      9425       1    1676    1793    1813    1849
CTETRA      9426       1     724    1976     723    1161
CTETRA      9427       1     724     710    3500     722
CTETRA      9428       1     724     750    1161    3500
CTETRA      9429       1     724    3500    1161     722
CTETRA      9430       1    3288    4337    4343    4344
CTETRA      9431       1    3625     413    1008    2921
CTETRA      9432       1    3288    4337    4350    4338
CTETRA      9433       1    2339    2340    1613    2094
CTETRA      9434       1    2339    2094    1613    2305
CTETRA      9435       1     605     180     447    1733
CTETRA      9436       1    4694    4744    3143    4695
CTETRA      9437       1    3134    6850    6849    4256
CTETRA      9438       1    1600    3469    1614    1613
CTETRA      9439       1    2343    1614    1613    1615
CTETRA      9440       1    2235    5093    5092    5112
CTETRA      9441       1     843    1359    2341    1332
CTETRA      9442       1    2339    2341    1613    2901
CTETRA      9443       1    1494    5110    4895    4896
CTETRA      9444       1    3541    3526    3626    3540
CTETRA      9445       1    2708    4783    4777    4778
CTETRA      9446       1    3279    2024    2147    2358
CTETRA      9447       1     876    2012     976    2502
CTETRA      9448       1    1072    1022    1075    1023
CTETRA      9449       1    1071    2502    1022    1020
CTETRA      9450       1    2381    6763    6764    6688
CTETRA      9451       1     127    5097      55    5104
CTETRA      9452       1    1071    1967    1558    1020
CTETRA      9453       1    1432    1430    3172    1481
CTETRA      9454       1    1430    3172    1481    1456
CTETRA      9455       1    1036    1456    3148    1967
CTETRA      9456       1    1074    1456    1073    1430
CTETRA      9457       1    1456    1415    1481    1074
CTETRA      9458       1    1497    1453    3172    1430
CTETRA      9459       1    3541    3540    3626    3627
CTETRA      9460       1    6695     938    6771    2338
CTETRA      9461       1    1456    3172    1061    3101
CTETRA      9462       1    2892    1263    3086    2152
CTETRA      9463       1    2892    2152    3106    2200
CTETRA      9464       1    2892    2200    3106    3218
CTETRA      9465       1     759    1262    1090    1235
CTETRA      9466       1     744    3083    6854    1560
CTETRA      9467       1    2892    1263    2152    3004
CTETRA      9468       1    6196    2861    2827    6197
CTETRA      9469       1    1262    2892    1261    1263
CTETRA      9470       1    1261    3103    3093    3104
CTETRA      9471       1    1820    1821     484    1667
CTETRA      9472       1    3420    4247    6846    4245
CTETRA      9473       1    2980    6658    6733    6734
CTETRA      9474       1     938    6695    6696    6620
CTETRA      9475       1    2438    6805    6729    6804
CTETRA      9476       1    1261    3004    2892    3296
CTETRA      9477       1    1865    1802    2257    1866
CTETRA      9478       1    1400    1865    2754    1404
CTETRA      9479       1    3456    3455    2768    3628
CTETRA      9480       1    2257    2755    1865    2783
CTETRA      9481       1    3629    5710    5635    5634
CTETRA      9482       1    1606    6517    6441    6516
CTETRA      9483       1    1990    2255    5171    5177
CTETRA      9484       1    5285    2130    3630    5295
CTETRA      9485       1     489    1865    1866    1802
CTETRA      9486       1     489    1871     490    1802
CTETRA      9487       1    1400    1865    1404    1402
CTETRA      9488       1    1865    1866    2257    2783
CTETRA      9489       1    1400    2155    3631    1404
CTETRA      9490       1     256    1993    2711    2477
CTETRA      9491       1    1992    1993    2711     256
CTETRA      9492       1     744    6856    6855    4269
CTETRA      9493       1     254    1993     256    2477
CTETRA      9494       1     496    4746    4763    4747
CTETRA      9495       1     253    2297    1622    2471
CTETRA      9496       1    3455    3632    3628    3484
CTETRA      9497       1    3539    4670    4671    4677
CTETRA      9498       1     879    1993     254    1269
CTETRA      9499       1    3455    3628    2187     370
CTETRA      9500       1     256    1994    2298    3633
CTETRA      9501       1    3491    3200    2998    3634
CTETRA      9502       1    1414    1084    2673    2670
CTETRA      9503       1    1041    2872    1414    2670
CTETRA      9504       1    4972       6    4971    4968
CTETRA      9505       1    1036    3101    1456    1415
CTETRA      9506       1     160    4948    4947    4959
CTETRA      9507       1     426    1669    1558    3148
CTETRA      9508       1    1041    2247    1669    2931
CTETRA      9509       1     556    1196     553    1653
CTETRA      9510       1    3455    3628     370    3635
CTETRA      9511       1    2238    4432    4435    4329
CTETRA      9512       1     555    2945    1197    1196
CTETRA      9513       1    2249    4434    4437    4433
CTETRA      9514       1    1195     451     547    1198
CTETRA      9515       1     556    3636     552     550
CTETRA      9516       1     556    2945    3637     550
CTETRA      9517       1    3638    6392    6468    6393
CTETRA      9518       1    2386    1931    1944    2391
CTETRA      9519       1    2386    2391    1944    2390
CTETRA      9520       1    2275    5426    4521    4516
CTETRA      9521       1    5492    3033    5416    2093
CTETRA      9522       1    5420    4483    6982    6983
CTETRA      9523       1    1286     829    2992    1167
CTETRA      9524       1    3639    3640    6554    6555
CTETRA      9525       1    1944    1167    2379    1933
CTETRA      9526       1    3002    6406    6482    6407
CTETRA      9527       1    2405    2914    1579    3366
CTETRA      9528       1    1818    1816    1817    2718
CTETRA      9529       1    3377    6552    6628    6553
CTETRA      9530       1    3641    4998    5022    4918
CTETRA      9531       1    6780    2239    2302    6705
CTETRA      9532       1    2952    5000    5011    5009
CTETRA      9533       1     445    1920     349    1255
CTETRA      9534       1    1618     689    1617    1420
CTETRA      9535       1    2483    1579    2568    2480
CTETRA      9536       1    2405    3007    1579    2480
CTETRA      9537       1    3642    3643    4680    3644
CTETRA      9538       1    2483    2326    2500    1818
CTETRA      9539       1    2483     348    1818    1856
CTETRA      9540       1     854    1083    1081    1872
CTETRA      9541       1    1617    2898    1918    1905
CTETRA      9542       1    2891    1905    1918    2782
CTETRA      9543       1    1912    2898    1660    1970
CTETRA      9544       1    1923    6622    6546    6621
CTETRA      9545       1    1359    1660    1912    2898
CTETRA      9546       1    1912    1905    2902    2898
CTETRA      9547       1    5422    4485    6985    5423
CTETRA      9548       1    2022    4648    4653    4649
CTETRA      9549       1    1912     405    2341    2902
CTETRA      9550       1     644    5450    4563    4562
CTETRA      9551       1    1359    2779    2782    2831
CTETRA      9552       1     858    6393    3645    6318
CTETRA      9553       1    1905    2902    2782    2891
CTETRA      9554       1    3134    6849    6850    5152
CTETRA      9555       1    2341     843    2901    2650
CTETRA      9556       1    3495    4985    4886    4885
CTETRA      9557       1     191    2642    3646    3647
CTETRA      9558       1     191    2642    3648    3646
CTETRA      9559       1     569    1890    2147    1707
CTETRA      9560       1    4239    4233    2991    4238
CTETRA      9561       1    1707     564     190    2147
CTETRA      9562       1    6807    4222    4227    6824
CTETRA      9563       1     191    2605    2816    3648
CTETRA      9564       1     970    4517    4521    4522
CTETRA      9565       1    3228    4491    4494    4490
CTETRA      9566       1    2564    4499    4505    4500
CTETRA      9567       1    2275    4516    4505    4504
CTETRA      9568       1    2207    5674    5673    5749
CTETRA      9569       1    3230    4642    4650    4643
CTETRA      9570       1    2515     191    2605     190
CTETRA      9571       1    3649    4615    4614    4613
CTETRA      9572       1    3140    4607    4608    4619
CTETRA      9573       1     191    2605     190    2816
CTETRA      9574       1    3293    4627    4642    4628
CTETRA      9575       1    4672    3151    3644    3650
CTETRA      9576       1    3539    4671    4670    4764
CTETRA      9577       1    2845    2274    1929     126
CTETRA      9578       1    2274    3651     126    3652
CTETRA      9579       1    2846     920    1929    2274
CTETRA      9580       1    3455    3653    3484    2955
CTETRA      9581       1    3651    3378    3652    2274
CTETRA      9582       1    3654    5184    5191    5157
CTETRA      9583       1    3655    5192    5204    5205
CTETRA      9584       1    2274    1724    3378    2278
CTETRA      9585       1    1587    1774    1377    1379
CTETRA      9586       1    1773    3036    3035    3037
CTETRA      9587       1    2207    3518    3653    3455
CTETRA      9588       1    1379    2282    1323    3509
CTETRA      9589       1    1395    6060    6135    6136
CTETRA      9590       1    2282    1645    3327    1379
CTETRA      9591       1     434    1719     716     717
CTETRA      9592       1     872    1321    1645    1379
CTETRA      9593       1    3656    3657    3658    3332
CTETRA      9594       1    1110    3234    1556    1111
CTETRA      9595       1    2708    4783    4778    4782
CTETRA      9596       1    1400    1865    1056    2754
CTETRA      9597       1    1109    1113    1218    1114
CTETRA      9598       1    1110    1556    1114    1111
CTETRA      9599       1    3659    3234    3660    2175
CTETRA      9600       1     952    3285    3642    4281
CTETRA      9601       1    1446    3660    3661    3662
CTETRA      9602       1    1446     176    1849     314
CTETRA      9603       1    3330    6437    6436    6512
CTETRA      9604       1     873    5687    5762    5763
CTETRA      9605       1    1793     275    1813     178
CTETRA      9606       1     312    1121     275     313
CTETRA      9607       1    1350    1412     955    1413
CTETRA      9608       1    3113    4515    4510    4462
CTETRA      9609       1    5437    4544    6999    7000
CTETRA      9610       1    2755    1345    1571    1802
CTETRA      9611       1     451    1564    1662    1650
CTETRA      9612       1     224     805    1411    1461
CTETRA      9613       1    2470    7039    7040    5205
CTETRA      9614       1    1808    2268    1412    1776
CTETRA      9615       1    1712    2637    2596    6681
CTETRA      9616       1    2701    4785    4775    4774
CTETRA      9617       1    2338    3130    1049     938
CTETRA      9618       1    3663    2746    2628    2735
CTETRA      9619       1    2385    5135    5125    5124
CTETRA      9620       1    3663    2037    2753    3664
CTETRA      9621       1    3663    3664    2038    2037
CTETRA      9622       1    3663    2038    2543    2211
CTETRA      9623       1    2711    1266    2267    2699
CTETRA      9624       1    3663    3564    2746    3665
CTETRA      9625       1    3663    3666    3665    2543
CTETRA      9626       1    1325    1329    2862    1847
CTETRA      9627       1     538    6686    6687    6611
CTETRA      9628       1    1327    1847    3195    3226
CTETRA      9629       1    1434    3667    3155    2353
CTETRA      9630       1    1511    2690    2761    1980
CTETRA      9631       1     621     958    2565    1511
CTETRA      9632       1    3668    1562     476     478
CTETRA      9633       1    2338     202    6694    6695
CTETRA      9634       1    2068    3507    5144    5150
CTETRA      9635       1    3021    2071    3225    6346
CTETRA      9636       1    1511    2565    1981    2744
CTETRA      9637       1    1448    1971    1512    1972
CTETRA      9638       1    2906    6690    6615    6614
CTETRA      9639       1    3147    4968    4967    4974
CTETRA      9640       1    1327    1972    1512    1968
CTETRA      9641       1     478    4932    4937    4933
CTETRA      9642       1    1330    1847    1327    1978
CTETRA      9643       1    6472    6473    6548     218
CTETRA      9644       1    6473     216     218    6472
CTETRA      9645       1    3471    6614    6538    6613
CTETRA      9646       1    2919    5633    2922    5634
CTETRA      9647       1    3412    4349    4333    4348
CTETRA      9648       1    6547    1657    1923     218
CTETRA      9649       1    4356    4363    3244    4357
CTETRA      9650       1    2076     414     413    4355
CTETRA      9651       1     971    1712    6680    2637
CTETRA      9652       1    1657     218    6548    2900
CTETRA      9653       1    2417    1629     213    3669
CTETRA      9654       1    2592    2988    1638    1639
CTETRA      9655       1     195    5106     196    5087
CTETRA      9656       1    1713    1712    6605     971
CTETRA      9657       1    5421    4481    6983    6984
CTETRA      9658       1     725    6538    6462    6537
CTETRA      9659       1    6771    5081    6877    6878
CTETRA      9660       1    1712    2913    2596    3592
CTETRA      9661       1    3206    4339    4326    4327
CTETRA      9662       1    1505    2866    2185     831
CTETRA      9663       1    5856    5857    3670    5781
CTETRA      9664       1    1782    2301    2590    1996
CTETRA      9665       1    1505     831    2185     792
CTETRA      9666       1     618    2417    2464     862
CTETRA      9667       1    1762    1833    1137     861
CTETRA      9668       1     862     618     319    1303
CTETRA      9669       1     342    4801    2541    1744
CTETRA      9670       1     863     319     862    1629
CTETRA      9671       1    3527    4759    4772    4760
CTETRA      9672       1    3671    6581    6656    6657
CTETRA      9673       1     618     161     153     213
CTETRA      9674       1    1814     214    3124    2464
CTETRA      9675       1    1665    2524    2525    3672
CTETRA      9676       1    1102    2433    2479    3056
CTETRA      9677       1    1102    3056    1309    2433
CTETRA      9678       1    3056    3097    1307    2433
CTETRA      9679       1    3673    4895    5110    5091
CTETRA      9680       1    5413    4379    4377    6976
CTETRA      9681       1    3056    3098    3020    3055
CTETRA      9682       1    6313    6389     726     719
CTETRA      9683       1    2484    4371    4376    4378
CTETRA      9684       1     301    2157    2156    3602
CTETRA      9685       1     301     607    3674    3307
CTETRA      9686       1     301    2158    3674     638
CTETRA      9687       1     301    3289     640     608
CTETRA      9688       1    2156    3289    2554    2555
CTETRA      9689       1     300    3307     609     607
CTETRA      9690       1    3497    4424    4423    4430
CTETRA      9691       1     300    3307    2849     609
CTETRA      9692       1    3088    4456    4457    4288
CTETRA      9693       1    3602     175     176     301
CTETRA      9694       1     300    2140    2132     175
CTETRA      9695       1     300     301    2157    3307
CTETRA      9696       1    3435    1809    3405    3430
CTETRA      9697       1    3355    5133    5128    5127
CTETRA      9698       1    3435    1216    3436    3199
CTETRA      9699       1    3435    3199    3675    1796
CTETRA      9700       1    3435    3199    1413    1216
CTETRA      9701       1    3435    3430    3439    2237
CTETRA      9702       1    2947    4965    4979    4966
CTETRA      9703       1    2291    6782    3556    6707
CTETRA      9704       1    2947    4965    4966    4954
CTETRA      9705       1    2348    4917    4954    4916
CTETRA      9706       1    2947    4966    4979    4976
CTETRA      9707       1    3435    3199    1796    1807
CTETRA      9708       1     809    3676    3677    3672
CTETRA      9709       1    3678    1765    3219    2248
CTETRA      9710       1    3617    2688    3679    3680
CTETRA      9711       1    3681    5240    5236    5239
CTETRA      9712       1    2939    6298    6297    6373
CTETRA      9713       1    1247    5237    5240    5210
CTETRA      9714       1    3617    2666    2688    3680
CTETRA      9715       1    1007    3617    1004    3452
CTETRA      9716       1    3617    3452    2666    3680
CTETRA      9717       1    1457    6729    6728    6804
CTETRA      9718       1    2843    4697    4711    4708
CTETRA      9719       1    4295    3622    3522    4296
CTETRA      9720       1    3617    3680    1004    3452
CTETRA      9721       1    2997    2105    4263    4264
CTETRA      9722       1       5       7    6638    6713
CTETRA      9723       1    3108    3107    3530    3333
CTETRA      9724       1    3682    3683    2587    6068
CTETRA      9725       1    2610    6298    6223    6222
CTETRA      9726       1    1206    1183    1190    1184
CTETRA      9727       1    2497    3311    2167    3333
CTETRA      9728       1    2401    6519    6443    6518
CTETRA      9729       1     342    4797    2312    4809
CTETRA      9730       1    1319    3108    2214    2495
CTETRA      9731       1    2496    1858    3108    2495
CTETRA      9732       1    1859    2450    3311    2451
CTETRA      9733       1     967    5118    5114    5115
CTETRA      9734       1    1374    2788    1392    2429
CTETRA      9735       1    3123    5301    3403    5293
CTETRA      9736       1    2161    2740    3664    2936
CTETRA      9737       1    1206    1146    1184    1212
CTETRA      9738       1    2957    5121    5128    5129
CTETRA      9739       1    2161    1860    1716    2628
CTETRA      9740       1     284     342     283     130
CTETRA      9741       1    2537    5382    5381    4875
CTETRA      9742       1    1374    2788    2429    2936
CTETRA      9743       1    3107     849    2214    2518
CTETRA      9744       1    2229    1735    2609     777
CTETRA      9745       1    2291    4915    4955    4956
CTETRA      9746       1    3064    2598     330    2716
CTETRA      9747       1    2229    1732    1735     777
CTETRA      9748       1    2229    3684     777    2609
CTETRA      9749       1    2229     777    3684    2231
CTETRA      9750       1    1428    3068    3066    2229
CTETRA      9751       1    1869    1893     390    2214
CTETRA      9752       1     342    1745    2541    2687
CTETRA      9753       1    2056    4625    4545    4639
CTETRA      9754       1    3077    4249    4243    4242
CTETRA      9755       1    2432    4218    4242    4219
CTETRA      9756       1    2214    1827    1853    1893
CTETRA      9757       1    1859    1165    1208    1954
CTETRA      9758       1     549     452     462     546
CTETRA      9759       1     662    1299    1298     865
CTETRA      9760       1    3685    4250    4243    4249
CTETRA      9761       1    3686    4251    4244    4250
CTETRA      9762       1     866     767    1885     749
CTETRA      9763       1    1649     815    2524     809
CTETRA      9764       1    3077    4243    4246    4242
CTETRA      9765       1    3341    3134    2105    2195
CTETRA      9766       1    2273    3498    1161    3500
CTETRA      9767       1    1649     860    3402     985
CTETRA      9768       1    3640    6554    6479    6478
CTETRA      9769       1    1607    5023    5028    5024
CTETRA      9770       1    5358    1087    1085    5359
CTETRA      9771       1    1974    2674    1976    1973
CTETRA      9772       1    6261    3598     336    6262
CTETRA      9773       1    2483    1856    2968    1277
CTETRA      9774       1    2062    5409    4354    5408
CTETRA      9775       1    2342    3267    2343    3266
CTETRA      9776       1    1613    3474    2340    2901
CTETRA      9777       1    3412    4345    4349    4354
CTETRA      9778       1    2339    1613    2340    2901
CTETRA      9779       1    2503    2504    4372    4376
CTETRA      9780       1    3412    4349    4348    4357
CTETRA      9781       1    2339    2342     649    2303
CTETRA      9782       1    3319    3687    3369    3320
CTETRA      9783       1    3319    3321    3081    3688
CTETRA      9784       1    3319    3689    3209    3374
CTETRA      9785       1    3690    3691    3597    3692
CTETRA      9786       1    3693    4932    4931    4935
CTETRA      9787       1    6554    3639    3377    3640
CTETRA      9788       1    3694    1875    3688    3319
CTETRA      9789       1    6629    3639    6630    2302
CTETRA      9790       1    2291    6781    6782    6706
CTETRA      9791       1    3319    1840    1875    3688
CTETRA      9792       1    2289    6631    6630    6706
CTETRA      9793       1    5398    6960    6961    4436
CTETRA      9794       1    1840    3209    3157    3319
CTETRA      9795       1    1845    3209    3319    3689
CTETRA      9796       1    6744    6745    6904    5302
CTETRA      9797       1     745    4759    4758    4771
CTETRA      9798       1      38    2073    3544    2995
CTETRA      9799       1    6744    5302    6905    5295
CTETRA      9800       1    3544      38    1223    2073
CTETRA      9801       1      38      39    3695    1223
CTETRA      9802       1    3696      38     156    3695
CTETRA      9803       1    1223     438      38      39
CTETRA      9804       1    2660    3697    2661    3698
CTETRA      9805       1    2660    2487    3698    2662
CTETRA      9806       1    6800    4273    3029    6801
CTETRA      9807       1    2923    2403    3259    3699
CTETRA      9808       1    1287    1700    2662    1356
CTETRA      9809       1    2970    6745    6670    6669
CTETRA      9810       1    1285    1294    1290    1296
CTETRA      9811       1    6805    6826    2144    6825
CTETRA      9812       1    1290    3557    1296    2661
CTETRA      9813       1    2489    2660    2487    3698
CTETRA      9814       1     833    2572    2876    2873
CTETRA      9815       1     981     982     716    1719
CTETRA      9816       1    3296    1235    1261    3700
CTETRA      9817       1    1822    3181    3078    2492
CTETRA      9818       1     649    5683    5758    5759
CTETRA      9819       1    1262    1090    1235    3218
CTETRA      9820       1    6585    3331    3332    6584
CTETRA      9821       1    3573    6654    6578    6653
CTETRA      9822       1     220     956     760     762
CTETRA      9823       1    5426    4516    6988    6989
CTETRA      9824       1    1260     889    1235     893
CTETRA      9825       1    6774    6874    6875    5079
CTETRA      9826       1    6773    6876    5084    5077
CTETRA      9827       1    3291    4515    4514    4529
CTETRA      9828       1    2275    4516    4521    4517
CTETRA      9829       1     528    6036    6112    6037
CTETRA      9830       1    1260    1235     889    3700
CTETRA      9831       1    1235    1261    3700    1260
CTETRA      9832       1    5446    4644    7008    7009
CTETRA      9833       1    7010    7011    5448    4565
CTETRA      9834       1    1258    1259    1100    2494
CTETRA      9835       1    1257    1259    2494    1261
CTETRA      9836       1    5445    4644    4649    7008
CTETRA      9837       1    2597    1289    3558    2598
CTETRA      9838       1    2597    1289    3701    3558
CTETRA      9839       1    1294    2661    1296    1016
CTETRA      9840       1    3280    5186    5199    5187
CTETRA      9841       1    2404    3007    3259    3366
CTETRA      9842       1    1295    1289    2598    1296
CTETRA      9843       1    3161    4447    4443    4448
CTETRA      9844       1    1295    2709    1501    1289
CTETRA      9845       1    2150    4433    4435    4432
CTETRA      9846       1    1359    2831    2782    2902
CTETRA      9847       1    1257    1263    1261    1821
CTETRA      9848       1     545     553     547     544
CTETRA      9849       1    3702    2318    2983    1989
CTETRA      9850       1    1939    2334    2821    2449
CTETRA      9851       1    1947    3362    1925    2377
CTETRA      9852       1    2334    2821    2449    2448
CTETRA      9853       1     476    4930    4923    4933
CTETRA      9854       1    1939    1947    1948    1938
CTETRA      9855       1    2855    6768    6769    6693
CTETRA      9856       1    1947    1940    3362    2377
CTETRA      9857       1    1929    3131     356    3130
CTETRA      9858       1    1947    1948    1938    1949
CTETRA      9859       1    1700    2487    2662    3488
CTETRA      9860       1    1700    1356    1357    3488
CTETRA      9861       1     863     840    1024    1381
CTETRA      9862       1    1230     296    1955    2402
CTETRA      9863       1    1152    1149     926    1144
CTETRA      9864       1    1150    1144    1155    1151
CTETRA      9865       1    1819    1525    1149    1521
CTETRA      9866       1    1149    1150    1152    3425
CTETRA      9867       1    1281    1815    1816    1856
CTETRA      9868       1    3703    3704    3705    2554
CTETRA      9869       1    3305    4593    4588    4591
CTETRA      9870       1    2981    1525    1533    1816
CTETRA      9871       1    2317     678     729    1256
CTETRA      9872       1    2638     697    1954    1211
CTETRA      9873       1    1148    1346    1519    1149
CTETRA      9874       1    2962    1525    1541    1346
CTETRA      9875       1    1923    6697    6621    6696
CTETRA      9876       1    3706    4908    4909    5036
CTETRA      9877       1    3259    3366    3007    3707
CTETRA      9878       1     585    3282     583     313
CTETRA      9879       1    3366    3520    3708    2707
CTETRA      9880       1     756     893     761    1096
CTETRA      9881       1    3366    3708    1536    3008
CTETRA      9882       1    1555    3152    1843    1840
CTETRA      9883       1    1775    1340    3329     586
CTETRA      9884       1    6244     857    6243    1033
CTETRA      9885       1     276     754    1141    1537
CTETRA      9886       1    2903    5056    5060    5061
CTETRA      9887       1    1458    1461    1270    1880
CTETRA      9888       1    1009    3709    5719    5720
CTETRA      9889       1     225    1682    1270    1411
CTETRA      9890       1     313     314    3156    1911
CTETRA      9891       1    1130    2024    3398    2031
CTETRA      9892       1    5434    4510    4526    6997
CTETRA      9893       1    5403    3203    2184    4358
CTETRA      9894       1    1008    4359    4365    4360
CTETRA      9895       1     560     564     962    1462
CTETRA      9896       1    3710    4883    4882    4931
CTETRA      9897       1    3693    4925    4931    4932
CTETRA      9898       1     160    4960    4959    4971
CTETRA      9899       1    2024    3278    3711    2359
CTETRA      9900       1    1701    3398    1130    2024
CTETRA      9901       1    2024    3711    3398    2031
CTETRA      9902       1     552    3712     554    3713
CTETRA      9903       1     545     554     553     544
CTETRA      9904       1    2650    1359    2341     843
CTETRA      9905       1    5399    5398    6961    4330
CTETRA      9906       1     548     550     435    2572
CTETRA      9907       1    5398    6961    4330    4436
CTETRA      9908       1     552    3713     554    2657
CTETRA      9909       1    1791     552    2656     550
CTETRA      9910       1     554     544     545     551
CTETRA      9911       1    1013     992     990     991
CTETRA      9912       1    3714    5183    5189    5190
CTETRA      9913       1    3280    5202    5188    5187
CTETRA      9914       1    1131    1015    1014    1000
CTETRA      9915       1     990    1030    1014     991
CTETRA      9916       1    5402    6965    4358    4350
CTETRA      9917       1     990     993     999    1031
CTETRA      9918       1    1335    1898    1300    1246
CTETRA      9919       1    2238    4330    4344    4329
CTETRA      9920       1    5401    4350    4337    6964
CTETRA      9921       1    1641    1620    2777    2787
CTETRA      9922       1    1335    1898    1246    2722
CTETRA      9923       1     548     435     714    2572
CTETRA      9924       1    1309    1307    3056     703
CTETRA      9925       1    1008    4351    4358    4359
CTETRA      9926       1    1102    3056    2479    3020
CTETRA      9927       1    2656    1790    1300    1335
CTETRA      9928       1     438      38    2073    1223
CTETRA      9929       1    1578    6411    6410    6486
CTETRA      9930       1    2479    1335    1336    3092
CTETRA      9931       1     341    6413    6337    6412
CTETRA      9932       1    3619    4988    4984    4987
CTETRA      9933       1    3325    2170    2169    1877
CTETRA      9934       1    3325    1877    1679    3238
CTETRA      9935       1    1877    1679    1682    1876
CTETRA      9936       1     826    4230    4225    4229
CTETRA      9937       1    3238    3325    3551    1679
CTETRA      9938       1     826    4226    4230    4227
CTETRA      9939       1     686    1792     684    1641
CTETRA      9940       1     909    6769    5085    2338
CTETRA      9941       1     761    1824    2485     956
CTETRA      9942       1    2093    1801    4368    4367
CTETRA      9943       1    2127    4369    4370    4380
CTETRA      9944       1    3715    4397    2201    3716
CTETRA      9945       1    1801    4389    4388    4387
CTETRA      9946       1    1412    1808    1627    1413
CTETRA      9947       1    3070    4597    4574    4575
CTETRA      9948       1    1237    1213     881    1824
CTETRA      9949       1    2299    1824     956    1216
CTETRA      9950       1    2297    1214     253    1622
CTETRA      9951       1    3428    1293    5191    5192
CTETRA      9952       1    1395    1909    2802    1906
CTETRA      9953       1    6366    6367    3717    6291
CTETRA      9954       1    1262     759    1090    1823
CTETRA      9955       1    1214     253    1622    2299
CTETRA      9956       1    2300    6517    6518    6442
CTETRA      9957       1    6443    2300    6368    6444
CTETRA      9958       1     253     255    1237    1214
CTETRA      9959       1    1249    1342    1269    2472
CTETRA      9960       1    2772    4218    4226    4222
CTETRA      9961       1     260     481     886     676
CTETRA      9962       1    1693    3540    2544    1694
CTETRA      9963       1    2549    1749    1902    2781
CTETRA      9964       1    1923    6622    6621    6697
CTETRA      9965       1     532    4708    4713    4709
CTETRA      9966       1    6801    6800    4273    6830
CTETRA      9967       1    3718    3719    5584    5583
CTETRA      9968       1    1690    1693    1696    2546
CTETRA      9969       1    2215    4547    4569    4548
CTETRA      9970       1    1150    1519    1148    3720
CTETRA      9971       1    1135    2530    1486    2625
CTETRA      9972       1    1690    1694    1693    2546
CTETRA      9973       1     363    1226    1043     505
CTETRA      9974       1    3259    2404    2403    2311
CTETRA      9975       1     842     843    1660    1831
CTETRA      9976       1    1332    2901     843    1601
CTETRA      9977       1    1612    1614    1600    1616
CTETRA      9978       1    1565    3212    1662    3515
CTETRA      9979       1    1306    1551      39      37
CTETRA      9980       1    2680    4785    4787    4777
CTETRA      9981       1     457    1017    1582    1564
CTETRA      9982       1     402    4777    4776    4775
CTETRA      9983       1     252     689     987    1617
CTETRA      9984       1    1814     214     618     153
CTETRA      9985       1    1565    1962    1662    3212
CTETRA      9986       1     888    1662    1564    1364
CTETRA      9987       1    1098    1047     890     896
CTETRA      9988       1    1235    3296    3218    3721
CTETRA      9989       1     759     893    1235    1090
CTETRA      9990       1    2708    4777    4783    4776
CTETRA      9991       1    3448    4762    4766    4763
CTETRA      9992       1     756     894     893    1096
CTETRA      9993       1     884     894     885     896
CTETRA      9994       1     884     888     758    1364
CTETRA      9995       1     884     897     888     887
CTETRA      9996       1    1235     893    1092    1090
CTETRA      9997       1     761    1096     893    1092
CTETRA      9998       1    2291    4916    4954    4955
CTETRA      9999       1    2214    2518    2740    3107
CTETRA     10000       1    2496    1652    3108    3531
CTETRA     10001       1    4962    2291    4955    4956
CTETRA     10002       1    1703    1705    2496    1431
CTETRA     10003       1    6781    4914    6868    6780
CTETRA     10004       1    1319    3108    1652    2498
CTETRA     10005       1    3108    1652    3722    3531
CTETRA     10006       1    3108    1853    2495    1858
CTETRA     10007       1    2710    4547    4548    4464
CTETRA     10008       1    3108    1652    2498    3722
CTETRA     10009       1    3133    1858    1651    2495
CTETRA     10010       1    3609    4633    4626    4632
CTETRA     10011       1    1480    1431    2496    1858
CTETRA     10012       1    1035    3488    3723    3724
CTETRA     10013       1    3499    4420    4426    4421
CTETRA     10014       1    1035    3725    3724    3726
CTETRA     10015       1    1729    5351    5338    5350
CTETRA     10016       1    3227    2930    4394    4395
CTETRA     10017       1    1035    3488    1034    3723
CTETRA     10018       1    1792    1777    3072    1630
CTETRA     10019       1    3727    3728    3729    1698
CTETRA     10020       1    1035    1000     998    1001
CTETRA     10021       1    2551    4420    4422    4426
CTETRA     10022       1    3593    4413    2557     819
CTETRA     10023       1    6779    6869    6870    5016
CTETRA     10024       1    2698    4901    5080    4902
CTETRA     10025       1    1000    1014    1001    1035
CTETRA     10026       1    3194    4518    4523    4519
CTETRA     10027       1    3058    4613    4604    4605
CTETRA     10028       1    3348    4512    4511    4525
CTETRA     10029       1    6853    6852    2960    2959
CTETRA     10030       1    3686    4251    6848    4244
CTETRA     10031       1    1035    3726    1001    3728
CTETRA     10032       1    1035    3729    3724    3725
CTETRA     10033       1     992    1005    3565     993
CTETRA     10034       1     915    1701     988     577
CTETRA     10035       1    1013    1014     990    2502
CTETRA     10036       1    3473    5152    6850    4882
CTETRA     10037       1     990    2502     994     974
CTETRA     10038       1    1013     992    3137    1022
CTETRA     10039       1     992     993     991    1006
CTETRA     10040       1    1833    3144    2625    2624
CTETRA     10041       1    1329    1764    1328    2863
CTETRA     10042       1    2196    4633    4546    4625
CTETRA     10043       1    2710    4465    4464    4548
CTETRA     10044       1    1764    2534    1328    2863
CTETRA     10045       1     780    1275    1182    1272
CTETRA     10046       1     863    1081    1628     862
CTETRA     10047       1    2680    4775    4785    4777
CTETRA     10048       1    1328    2535    2808    2807
CTETRA     10049       1     853    1449     854    1763
CTETRA     10050       1     402    4775    4776    4767
CTETRA     10051       1    1833    3144    1692    2625
CTETRA     10052       1    2527    2624    2530    2529
CTETRA     10053       1    1753     827    1754    2709
CTETRA     10054       1    2625    1694    3624    3357
CTETRA     10055       1    1690    1692    1695    2625
CTETRA     10056       1    2701    4775    4766    4774
CTETRA     10057       1    2625    2624    3624    2530
CTETRA     10058       1    2951    4953    4964    4965
CTETRA     10059       1    2625    3144    3357    2624
CTETRA     10060       1    3556    6708    6633    6632
CTETRA     10061       1    3355    5120    5127    5128
CTETRA     10062       1    2234    5112    5111    5126
CTETRA     10063       1     840    1083    1381    1081
CTETRA     10064       1    1110    1111    1112    2409
CTETRA     10065       1    2790    1314    1311    1725
CTETRA     10066       1    3023    2869    3585    3648
CTETRA     10067       1    6793    6856    6794    6837
CTETRA     10068       1    2050    4958    4957    4973
CTETRA     10069       1     996     521      37     248
CTETRA     10070       1     135     744    6856    4940
CTETRA     10071       1      38      36    2073    2995
CTETRA     10072       1    1742    1570    2196    2215
CTETRA     10073       1    1789    2875    1665    3061
CTETRA     10074       1    3051    5438    4654    5437
CTETRA     10075       1      39    1225      38      36
CTETRA     10076       1    3730    5745    5669    5744
CTETRA     10077       1    3050    5590    5515    5514
CTETRA     10078       1     439     982    1873     571
CTETRA     10079       1    2022    4647    4653    4648
CTETRA     10080       1     434     441     717     716
CTETRA     10081       1    1912    2898    1970    1905
CTETRA     10082       1    1975    2271    1724    2278
CTETRA     10083       1     563    2933    1125     512
CTETRA     10084       1     865     769     767    2296
CTETRA     10085       1    2022    4648    3731    4637
CTETRA     10086       1    3387    5893    5817    5892
CTETRA     10087       1    2083    4628    4630    4631
CTETRA     10088       1    4645    3230    4650    4643
CTETRA     10089       1    1123    1591    1124    2276
CTETRA     10090       1    1352    2271    3378    1724
CTETRA     10091       1     563     512    1126     514
CTETRA     10092       1     802     397    1345    1056
CTETRA     10093       1    1052    1065    1007    1051
CTETRA     10094       1    1862    1864    1837    2439
CTETRA     10095       1    3206    4339    4340    4326
CTETRA     10096       1    1882    2669    1883    1884
CTETRA     10097       1    2866    4412    2868    2185
CTETRA     10098       1     689    1748    1970     690
CTETRA     10099       1    1862    1889    1837    1864
CTETRA     10100       1    5400    4337    4344    6963
CTETRA     10101       1    1007    1893    1886    3614
CTETRA     10102       1    3614    1886    1887    1896
CTETRA     10103       1    1862    1867    1886    1893
CTETRA     10104       1    2956    2766    3421    3349
CTETRA     10105       1    2823    2883    3423    3732
CTETRA     10106       1    1134    3437    1739    1738
CTETRA     10107       1    3424    3528    2883    2884
CTETRA     10108       1    2107    4275    4277    4270
CTETRA     10109       1    3552    1738    2956    3553
CTETRA     10110       1     943    4995    4996    5002
CTETRA     10111       1    3552    3424    1738    3437
CTETRA     10112       1    1393    1395    1394    1407
CTETRA     10113       1    1781    3274     598    1179
CTETRA     10114       1     339    6336    6337    6261
CTETRA     10115       1    1423    1396    1909    2802
CTETRA     10116       1    1781    3534    3733    1999
CTETRA     10117       1    1786    1781    1771    1782
CTETRA     10118       1    2895    6778    6703    6702
CTETRA     10119       1    3734     242     240     241
CTETRA     10120       1    4809     342    2687    1745
CTETRA     10121       1    2195    4882    6850    6851
CTETRA     10122       1    1781     596    1783    1782
CTETRA     10123       1    1781    1782    1999    1997
CTETRA     10124       1    1781    1999    1180    1997
CTETRA     10125       1    3735    4469    4470    4492
CTETRA     10126       1     357     196     901    5088
CTETRA     10127       1    1781    3274     596     598
CTETRA     10128       1    3014    4478    4479    4480
CTETRA     10129       1    2698    3142    6774    6775
CTETRA     10130       1    3736    4244    6848    6847
CTETRA     10131       1    2756    1679    3551    3737
CTETRA     10132       1    3685    4243    4250    4244
CTETRA     10133       1    1678    3238    1680    1679
CTETRA     10134       1     603    2756    1460    1681
CTETRA     10135       1    1460    1681    2756    1679
CTETRA     10136       1    2756    2155    3738     814
CTETRA     10137       1    2205    4456    4460    4441
CTETRA     10138       1    4797     283    4798     342
CTETRA     10139       1     603    2756    1649    2155
CTETRA     10140       1    3480    2448    2532    3739
CTETRA     10141       1    3480    3433    2839    2834
CTETRA     10142       1    2222    3740    2221    4472
CTETRA     10143       1    3741    5138    5133    5140
CTETRA     10144       1    2046    4446    4327    4326
CTETRA     10145       1     129    2312     283    7038
CTETRA     10146       1    3480    2839    3433    2821
CTETRA     10147       1     690     692    3482    1769
CTETRA     10148       1    1526    3480    3433    2821
CTETRA     10149       1    2533    2531    3480    2835
CTETRA     10150       1    2165    4452    4451    4453
CTETRA     10151       1    2290     975    3742    3743
CTETRA     10152       1    2170    1682    3238    1895
CTETRA     10153       1    2291    6782    4962    2947
CTETRA     10154       1    2283    6483    6559    6484
CTETRA     10155       1    6633    1205    6634    6709
CTETRA     10156       1    3249    3250    3242    3251
CTETRA     10157       1    1809    1803    1410    3251
CTETRA     10158       1    1874    3324    1409    1410
CTETRA     10159       1    2934    3324    1409    1874
CTETRA     10160       1    3244    4356    4357    4348
CTETRA     10161       1     225     954     972    1683
CTETRA     10162       1    1683    3181    1410    1803
CTETRA     10163       1     954    1410    1413    1803
CTETRA     10164       1    1350    1410    1409    1413
CTETRA     10165       1    1211    1708    2677    1212
CTETRA     10166       1    3744    3745    6175    6174
CTETRA     10167       1    2161    2518    2740    2214
CTETRA     10168       1    2167    3310    1209    2627
CTETRA     10169       1    1209    2635    2627    1708
CTETRA     10170       1     950    2270    2894    5015
CTETRA     10171       1    1220     291    1392    1217
CTETRA     10172       1    6806    6825    4222    6824
CTETRA     10173       1    4242    4248    2432    4249
CTETRA     10174       1    1206     315    1183     787
CTETRA     10175       1    1183    3015    1193    1273
CTETRA     10176       1     354    5074    5078    5075
CTETRA     10177       1    1450    1210    1752    1860
CTETRA     10178       1    2475    4500    4506    4501
CTETRA     10179       1    1210    1860    2635    1752
CTETRA     10180       1     970    4517    4522    4518
CTETRA     10181       1    2549    2781    1691    1749
CTETRA     10182       1    3746    2547    2550    1902
CTETRA     10183       1    1903    1904    3747    1902
CTETRA     10184       1    1393    1394     690    1406
CTETRA     10185       1    1902    1749    1904    2781
CTETRA     10186       1    3748    4244    4247    4243
CTETRA     10187       1    2549    1903    2545    2550
CTETRA     10188       1     583    3282     585     584
CTETRA     10189       1     509    2403     892     746
CTETRA     10190       1     584     583    3282     818
CTETRA     10191       1    2239    2290    2291    5012
CTETRA     10192       1     584    2866    3261    3262
CTETRA     10193       1    1341    3282     585     312
CTETRA     10194       1    6804    4259    6827    4252
CTETRA     10195       1    3749    6847    5185    6846
CTETRA     10196       1    2578    6428    6503    6504
CTETRA     10197       1     584    3282     585    1341
CTETRA     10198       1    3750    2096    2759    2309
CTETRA     10199       1     816     818     817    3282
CTETRA     10200       1     584    1340    3262    3261
CTETRA     10201       1    2163    4606    4635    4607
CTETRA     10202       1    3302    5594    5669    5670
CTETRA     10203       1    2218    3188    3190    4586
CTETRA     10204       1     584    1341    3261     817
CTETRA     10205       1    1116    4646    4652    4647
CTETRA     10206       1    2310    2309    3751    3752
CTETRA     10207       1    2895    6702    6703    6627
CTETRA     10208       1    3507    4885    5147    5150
CTETRA     10209       1    1289    1288    1296    1285
CTETRA     10210       1    3753    5150    5151    4884
CTETRA     10211       1    2992     528    2994    1288
CTETRA     10212       1    5252    5251    3049    1727
CTETRA     10213       1     829    1289    1984    2709
CTETRA     10214       1    1289    1288    3701    3558
CTETRA     10215       1    1731    4895    4894    5235
CTETRA     10216       1     973     595    3591    1784
CTETRA     10217       1    2742    2744    3577    2743
CTETRA     10218       1     744    4269    6855    4272
CTETRA     10219       1    3083    4276    4272    4271
CTETRA     10220       1    2742    3579    2442    1421
CTETRA     10221       1    2800    3273    2742    3577
CTETRA     10222       1    2959    4270    6853    6852
CTETRA     10223       1    2742    3546    3273    3549
CTETRA     10224       1    2167    2161    2628    1860
CTETRA     10225       1    3051    4658    5438    5439
CTETRA     10226       1     634    1552    5365     635
CTETRA     10227       1    2497    3333    2498    3311
CTETRA     10228       1    1210    1752    2635    1721
CTETRA     10229       1     292    1113    1221     589
CTETRA     10230       1     847    2161    2429    2214
CTETRA     10231       1    1209    2635    1860    2627
CTETRA     10232       1    2939    6298    6374    6299
CTETRA     10233       1     292     589     590     591
CTETRA     10234       1    2214    1869    1853    1868
CTETRA     10235       1    1915    3581    2800    1421
CTETRA     10236       1    1421    3581    1918    1915
CTETRA     10237       1    4986    3754    3619    4984
CTETRA     10238       1    6269    2243    3225    6344
CTETRA     10239       1    3065    4977    4963    4970
CTETRA     10240       1    3395    6676    6677    6601
CTETRA     10241       1     407     653     927     779
CTETRA     10242       1    3356    3547    3357    3144
CTETRA     10243       1    1762    2690    1330    1327
CTETRA     10244       1    1285     828     829    1286
CTETRA     10245       1    1692    1695    2625    3357
CTETRA     10246       1    2999    6849    4251    4256
CTETRA     10247       1    3279    3278    3755    2771
CTETRA     10248       1    4936    2194    2960    6852
CTETRA     10249       1    3756    4509    4468    4503
CTETRA     10250       1    3279    2024    2771    2147
CTETRA     10251       1    4508    4507    2037    4519
CTETRA     10252       1    2001    4511    4520    4525
CTETRA     10253       1    3278    3345    3757    1440
CTETRA     10254       1    3278    3185    3711     945
CTETRA     10255       1    3278    3755    3757    3345
CTETRA     10256       1    3279    3755    3278    3345
CTETRA     10257       1    1751    1531    1819     926
CTETRA     10258       1    2813    4592    4593    4591
CTETRA     10259       1    1532     731     925    1928
CTETRA     10260       1    2823    2883    2881    1928
CTETRA     10261       1    2037    4503    4508    4509
CTETRA     10262       1    1819    2823    2984    3425
CTETRA     10263       1    3142    6624    6700    6625
CTETRA     10264       1    3347    5726    5727    5651
CTETRA     10265       1    2881    1152    1155    3425
CTETRA     10266       1     551    3713     554    3758
CTETRA     10267       1     551     554    3713    2657
CTETRA     10268       1    1225      38      36    2073
CTETRA     10269       1     715     981    1773     435
CTETRA     10270       1     546    1962    1231    1385
CTETRA     10271       1    3759    5074    5076    4903
CTETRA     10272       1     552     554     551    2657
CTETRA     10273       1      39     438      38    1225
CTETRA     10274       1    3297    2391    3570    1931
CTETRA     10275       1    2270    4903    5001    5013
CTETRA     10276       1    3297    1153    1154    1144
CTETRA     10277       1    1156    2793    2792    1151
CTETRA     10278       1    4720    5464    4728    7027
CTETRA     10279       1    2077    4766    4767    4770
CTETRA     10280       1    2792    3570    3450    1931
CTETRA     10281       1    1211    2677    1143    1212
CTETRA     10282       1    2638    3450    2792    2677
CTETRA     10283       1    2950    4954    4917    4953
CTETRA     10284       1    1672    1700    2488    2663
CTETRA     10285       1     829    1984    1166    2709
CTETRA     10286       1    1983    1988    1320    1987
CTETRA     10287       1    2348    4917    4916    5010
CTETRA     10288       1    2386    3297    2388    1931
CTETRA     10289       1    3760    6558    6634    6559
CTETRA     10290       1    1274    1581     348    1272
CTETRA     10291       1    1988    1987    2451    1320
CTETRA     10292       1    1983    1754    1166    1984
CTETRA     10293       1    1168    1166    1985    1954
CTETRA     10294       1    1754     827    1166    2709
CTETRA     10295       1    3138    4615    4606    4610
CTETRA     10296       1    5437    4544    7000    4654
CTETRA     10297       1    2083    4628    4643    4629
CTETRA     10298       1    3293    4628    4642    4643
CTETRA     10299       1    2717    3761    2760    2759
CTETRA     10300       1    2784    2671    1571    1573
CTETRA     10301       1    2784    1573    2850    2671
CTETRA     10302       1    2858    2853    2182    2856
CTETRA     10303       1    2001    4511    4509    4520
CTETRA     10304       1    1442    1370    2671    1568
CTETRA     10305       1    2671    1836    2856    2672
CTETRA     10306       1    2856    2857    1883    1836
CTETRA     10307       1     609    1506    3762    3763
CTETRA     10308       1    3763    1506    3762    2538
CTETRA     10309       1    1503    1505    2731     609
CTETRA     10310       1    1503    2679    2580    2538
CTETRA     10311       1    1503    1506    1505     609
CTETRA     10312       1    6781    4956    6867    6868
CTETRA     10313       1    3273    3549    3548    3764
CTETRA     10314       1    2800    3581    2803    1421
CTETRA     10315       1    2800    3581    3582    2803
CTETRA     10316       1    3273    3765    3548    3546
CTETRA     10317       1     352    5077    6774    6773
CTETRA     10318       1    2410    4310    2221    4406
CTETRA     10319       1    3766    5123    5121    5114
CTETRA     10320       1    1502     668    6533     667
CTETRA     10321       1    5042    1997    2929    4894
CTETRA     10322       1    3273    3765    3546    3578
CTETRA     10323       1    3273    3764    3765    3767
CTETRA     10324       1    3273    3581    3764    3767
CTETRA     10325       1    1542    4635    4634    4645
CTETRA     10326       1    6129    3604    3768    3769
CTETRA     10327       1    2608    2609    3770    3771
CTETRA     10328       1    2608    3770    2609    3053
CTETRA     10329       1    3609    4569    4632    4570
CTETRA     10330       1    3189    4579    4581    4578
CTETRA     10331       1    1736    3121    3205    2640
CTETRA     10332       1    2215    4547    4633    4569
CTETRA     10333       1    3046    3053    3121    3588
CTETRA     10334       1    2644     912    1545    3772
CTETRA     10335       1     576    1107    1158    2516
CTETRA     10336       1    3121    3585    1737    3205
CTETRA     10337       1    2195    6851    4936    4882
CTETRA     10338       1     368     369     859    5100
CTETRA     10339       1    2608    1735    2229    1732
CTETRA     10340       1     774     776    1699    1034
CTETRA     10341       1    1639     171    2988    1637
CTETRA     10342       1    3332    6584    3331    6508
CTETRA     10343       1    2989    2988    2664    2987
CTETRA     10344       1    3751    2402     892    3773
CTETRA     10345       1    2988    3774     171    3775
CTETRA     10346       1    3776    1032    3358    2153
CTETRA     10347       1    1671    1063    1382     919
CTETRA     10348       1    2986    5170    5169    5178
CTETRA     10349       1    5686    5762    3170     873
CTETRA     10350       1    1427    2665    2664    2990
CTETRA     10351       1    3713    3777    3003    3778
CTETRA     10352       1    2988    3590    3775     168
CTETRA     10353       1    2988    3590     168     169
CTETRA     10354       1    2940    1648    1641    1640
CTETRA     10355       1    1640    1620    1641     685
CTETRA     10356       1    3779    5271    5287    5288
CTETRA     10357       1    2130    5288    5298    5289
CTETRA     10358       1    1018     807    1010    1019
CTETRA     10359       1    1017    1019     886     808
CTETRA     10360       1    1628    1636    1381    1158
CTETRA     10361       1    2940     686    1792    1010
CTETRA     10362       1    1420    1422     683     691
CTETRA     10363       1    3302    5519    5594    5595
CTETRA     10364       1    3780    3388    2020    3730
CTETRA     10365       1    1618    1485    1942    1780
CTETRA     10366       1    1234    1224     823     839
CTETRA     10367       1    2177    1509    3781    3050
CTETRA     10368       1    2747    1019    1048     897
CTETRA     10369       1    2430    4511    4466    4467
CTETRA     10370       1    2506    3601    2561    2624
CTETRA     10371       1    2399    2402    3751    3773
CTETRA     10372       1    2506    3583    3624    2514
CTETRA     10373       1    2506    2514    2513    3256
CTETRA     10374       1    2506    3624    2529    2514
CTETRA     10375       1    3354    5119    5120    5122
CTETRA     10376       1    2512    2506    2509    2529
CTETRA     10377       1    2506    2514    2529    2512
CTETRA     10378       1    2186    2695    2696    1885
CTETRA     10379       1    1363    1268    1324    1603
CTETRA     10380       1    2541    4800     342    6936
CTETRA     10381       1     864     769     767     626
CTETRA     10382       1    1974    2674    2296    1977
CTETRA     10383       1    1974    1973     865    2674
CTETRA     10384       1     485     755    4749     297
CTETRA     10385       1     749     767    1974     866
CTETRA     10386       1     866    1798     749    1885
CTETRA     10387       1    3276    4450    4449    4448
CTETRA     10388       1    1975    2273    2272    1976
CTETRA     10389       1     866     767     660    1885
CTETRA     10390       1    2171    5474    5398    5473
CTETRA     10391       1    1647    1642    1648    2333
CTETRA     10392       1    1647    3594    1631    1642
CTETRA     10393       1    2329    3211    3594    3597
CTETRA     10394       1    1960    3212    1663    1962
CTETRA     10395       1    1232    2328    1250    1386
CTETRA     10396       1    3673    4894    4895    5091
CTETRA     10397       1    1339    3261    1340    1338
CTETRA     10398       1    1339    3263    1340    3261
CTETRA     10399       1    2657    3758    3020    3095
CTETRA     10400       1    1624    2203    1339    2393
CTETRA     10401       1    2982    4236    4229    4228
CTETRA     10402       1    1775    1337    1339    1340
CTETRA     10403       1    1337    2558    1339    1338
CTETRA     10404       1     966    4228    4223    6843
CTETRA     10405       1    1989    5162    5173    5161
CTETRA     10406       1    3384    6671    6595    6670
CTETRA     10407       1    2292    5297    5296    5303
CTETRA     10408       1    1339    1340    3263    2203
CTETRA     10409       1    3269    3782    3783    3758
CTETRA     10410       1     187    1541     188     186
CTETRA     10411       1    2970    5304    5302    5298
CTETRA     10412       1    3784    3785    1155    2881
CTETRA     10413       1    2159    6566    6490    6565
CTETRA     10414       1    3063    6488    6487    6563
CTETRA     10415       1    3786    6341    1282    2160
CTETRA     10416       1    2883    3784    2882    3787
CTETRA     10417       1    2956    1738    3424    1928
CTETRA     10418       1    2823    2881    2883    3732
CTETRA     10419       1    3309    6573    6572    6648
CTETRA     10420       1    2373    6418    6493    6494
CTETRA     10421       1    3159    6676    6752    6677
CTETRA     10422       1    4986    3754    4924    4925
CTETRA     10423       1    2823    3424    2883    1928
CTETRA     10424       1    3528    3423    3555    3437
CTETRA     10425       1    2883    3528    2882    2884
CTETRA     10426       1    3433    2821    2839    2242
CTETRA     10427       1    3480    2821    2448    2839
CTETRA     10428       1     971    2636    3245    3393
CTETRA     10429       1    3433    1938    2821    2242
CTETRA     10430       1    1475    1476    6527    6452
CTETRA     10431       1    1526    3480    2821    2448
CTETRA     10432       1    3159    3395    6676    6677
CTETRA     10433       1    1526    3480    2448    2531
CTETRA     10434       1    1937    3433    2884    2826
CTETRA     10435       1    2144    4217    4222    6825
CTETRA     10436       1    3433    1133    2884    2835
CTETRA     10437       1    1518    1925    2379    1286
CTETRA     10438       1    2141    4700    4701    4699
CTETRA     10439       1    1202    2390    1925    1239
CTETRA     10440       1    3788    4501    4506    4507
CTETRA     10441       1    3009    6600    6601    6525
CTETRA     10442       1    2379    1925    3362    1286
CTETRA     10443       1    2038    4507    4506    4518
CTETRA     10444       1    2379    3362    1933    1286
CTETRA     10445       1    1944    1943    3362    1949
CTETRA     10446       1    3789    5486    5410    5485
CTETRA     10447       1    1935    1154    1934    1528
CTETRA     10448       1    1936    2390    1239    1949
CTETRA     10449       1    6972    4345    2063    5409
CTETRA     10450       1    1847    3790    3791    3195
CTETRA     10451       1    1847    1978    3790    3226
CTETRA     10452       1    1847    1978    3163    3790
CTETRA     10453       1     796    1827    1007    1004
CTETRA     10454       1    1778    6290    6365    6922
CTETRA     10455       1    3792    5177    5166    5167
CTETRA     10456       1    1827    1853    1852    2495
CTETRA     10457       1    2214    1827    2495    1853
CTETRA     10458       1      78     796    1827    1007
CTETRA     10459       1    1106    2641    1107    1160
CTETRA     10460       1    1007    1051    1004    1052
CTETRA     10461       1    3276    4450    4432    4449
CTETRA     10462       1    3288    4342    4328    4343
CTETRA     10463       1    1007    1827    1893    3452
CTETRA     10464       1    5399    6962    4330    6961
CTETRA     10465       1    2214     390     997    1827
CTETRA     10466       1    2409    1110    1388    1112
CTETRA     10467       1    1003    1051    1004    1007
CTETRA     10468       1    1056    2755    1459    2754
CTETRA     10469       1     855    4763    4770    4747
CTETRA     10470       1    2940    3072    1792    1641
CTETRA     10471       1    2712    4764    4762    4765
CTETRA     10472       1    1792    2749    3072    1010
CTETRA     10473       1    2160    6414    6415    6339
CTETRA     10474       1    1792    1766    2751     692
CTETRA     10475       1    1792    1766    1630    2751
CTETRA     10476       1    2307    4922    4987    4923
CTETRA     10477       1    1792    2749    1630    3072
CTETRA     10478       1     659     658    3164     641
CTETRA     10479       1    2163    4606    3140    2964
CTETRA     10480       1    7039    4798    7038     283
CTETRA     10481       1    5817    2192    5816    5741
CTETRA     10482       1    1542    4643    4645    4634
CTETRA     10483       1    1663    3515    3011    3793
CTETRA     10484       1    1650    1662    1663    3515
CTETRA     10485       1    1663     544    1668    1656
CTETRA     10486       1    3794    6042    5966    6041
CTETRA     10487       1    1960    1647    3211    3212
CTETRA     10488       1    2110    4570    4582    4585
CTETRA     10489       1    1663    1687    3793    3011
CTETRA     10490       1    3795    4629    4643    4634
CTETRA     10491       1    2227    2220    1198    1663
CTETRA     10492       1    5436    6999    4461    6998
CTETRA     10493       1     453    1663    1662    1962
CTETRA     10494       1    1198    2227    1663    1668
CTETRA     10495       1    1546    4461    4462    4510
CTETRA     10496       1    2728    2629    2727    2737
CTETRA     10497       1    1714    2629    2631    2727
CTETRA     10498       1    2629    2627    2634    1709
CTETRA     10499       1    2629    2627    1709    2728
CTETRA     10500       1    2727    2737    2736    2728
CTETRA     10501       1    2629    2725    2737    2728
CTETRA     10502       1      78    1862      83      79
CTETRA     10503       1    1652    1320    1987    1464
CTETRA     10504       1    3091    5224    5223    5281
CTETRA     10505       1    3477    4671    4672    4678
CTETRA     10506       1    1373    2167    1860    2161
CTETRA     10507       1    3133     796    2697    1004
CTETRA     10508       1     388     425    1062     558
CTETRA     10509       1    2127    4378    4379    4380
CTETRA     10510       1    3133    2820    3452    1004
CTETRA     10511       1    1482    2820    1054    1481
CTETRA     10512       1    5412    4374    5411    6974
CTETRA     10513       1    1482    1054    2820    1004
CTETRA     10514       1    1967    1023    3119    1020
CTETRA     10515       1    1036    3148    1456    3101
CTETRA     10516       1    1073    1430    1456    1453
CTETRA     10517       1    1073    1380    1023    1967
CTETRA     10518       1    1380    1071    1967    1558
CTETRA     10519       1    6487    3063     341    6488
CTETRA     10520       1    1261    2494    1821    3093
CTETRA     10521       1     813    5099     859    5105
CTETRA     10522       1     551    3020    3758    1384
CTETRA     10523       1    3796    4493    4498    4497
CTETRA     10524       1    3102    3104    3103    2279
CTETRA     10525       1    3213    5120    5121    5123
CTETRA     10526       1     710    6539    6540    6464
CTETRA     10527       1     368    5123    5122    5120
CTETRA     10528       1     202    6619    6694    6695
CTETRA     10529       1    1261    3093    3103    2494
CTETRA     10530       1    1263    3093    3086    2151
CTETRA     10531       1    1263    2199    3093    2151
CTETRA     10532       1    1263    2152    2151    3086
CTETRA     10533       1    2892    2152    3086    3106
CTETRA     10534       1    1823    1090    3218    2485
CTETRA     10535       1    2892    3296    2879    3218
CTETRA     10536       1     489     490    1056    1802
CTETRA     10537       1    3373    3797    3758    3782
CTETRA     10538       1    1402    3169    1866    3182
CTETRA     10539       1     793    4780     794    4303
CTETRA     10540       1    2084    4630    4604    4572
CTETRA     10541       1    3192    1403    3182    3183
CTETRA     10542       1    1403    3182    3183    1402
CTETRA     10543       1    1400    1403    2368    1401
CTETRA     10544       1    2906    6688    6689    6613
CTETRA     10545       1    1865    3182    1402    1866
CTETRA     10546       1    3798    5921    5845    5920
CTETRA     10547       1    3539    4672    4671    4732
CTETRA     10548       1    3713    3777    3797    3373
CTETRA     10549       1    1397    5275    5290    5276
CTETRA     10550       1    3152    1555    1843    1911
CTETRA     10551       1    1644    5223    5282    5281
CTETRA     10552       1    2183    2973    3209    1844
CTETRA     10553       1    1569    1574    3361    2973
CTETRA     10554       1    2004    5045    5057    5049
CTETRA     10555       1    1569    1568    1567    2182
CTETRA     10556       1     552    2656    3636    3712
CTETRA     10557       1    1060    1067    1037    1051
CTETRA     10558       1    1067    1080    1078    1079
CTETRA     10559       1    1067    1037    1051    1078
CTETRA     10560       1    3595    3783    3758    3269
CTETRA     10561       1    1003    1067    1065    1575
CTETRA     10562       1    2572    2809    2945    2873
CTETRA     10563       1    1599    1962    1582    1017
CTETRA     10564       1     556    2945    1196    3799
CTETRA     10565       1     556    3799    1196    3800
CTETRA     10566       1     555     556     550    2945
CTETRA     10567       1    2945    2876    3801    3637
CTETRA     10568       1    2876     550    3637    2945
CTETRA     10569       1    4800     342    4801    2541
CTETRA     10570       1     649    3390    1331    5609
CTETRA     10571       1       8    6788    6787    4975
CTETRA     10572       1    2453    2876     550    3637
CTETRA     10573       1    2572    2945    2809    1197
CTETRA     10574       1    2561     934    2577    2562
CTETRA     10575       1    3731    4637    4648    4638
CTETRA     10576       1    3758    3373    3055    3095
CTETRA     10577       1    1146    1143    1156    1212
CTETRA     10578       1     993    3802    1006    1005
CTETRA     10579       1    2108    5518    5593    5594
CTETRA     10580       1    2021    4635    4646    4636
CTETRA     10581       1     961    1528    1527     924
CTETRA     10582       1    2386    2391    1935    1154
CTETRA     10583       1     746    4744    4743    4758
CTETRA     10584       1    1935     961    1154    1528
CTETRA     10585       1    3147       8    3149       6
CTETRA     10586       1    3803    4581    4582    4583
CTETRA     10587       1    1944    1167    1933    1931
CTETRA     10588       1    1144    1146    1156    1157
CTETRA     10589       1    1779    2568    2394    1276
CTETRA     10590       1    1779    1581    2568    1276
CTETRA     10591       1     993    1006    2283     991
CTETRA     10592       1    1539    1779    1536    2132
CTETRA     10593       1    1946    2414    1660    3481
CTETRA     10594       1    3804    3096    1368    3654
CTETRA     10595       1    6742    5285    6743    6906
CTETRA     10596       1    1946    1047    2414    3805
CTETRA     10597       1    1912    1407    1905    1970
CTETRA     10598       1    1359    2779    1659    2898
CTETRA     10599       1     357    5072    5088    5089
CTETRA     10600       1    2475    4506    4500    4505
CTETRA     10601       1    3516    3295    1650    3120
CTETRA     10602       1    3295    3120    3516    2599
CTETRA     10603       1    3806    4399    4320    4321
CTETRA     10604       1    2425    5062    5049    5057
CTETRA     10605       1    1261    3700    1260    3120
CTETRA     10606       1    3102    1353    2494    3060
CTETRA     10607       1    1261    3104    3093    3004
CTETRA     10608       1    3295    3153    6148    3104
CTETRA     10609       1    1259    1650    3295    3120
CTETRA     10610       1     974     999     993    3807
CTETRA     10611       1    1103    1104    1106    1174
CTETRA     10612       1    6788    6789    6860    4974
CTETRA     10613       1    1105    1313    1894    2641
CTETRA     10614       1    1106    1105    2641    1313
CTETRA     10615       1    1865    1402    1400     489
CTETRA     10616       1    3808    5423    5424    4473
CTETRA     10617       1     860    1643    1645     602
CTETRA     10618       1     872    2282     860    1322
CTETRA     10619       1     498    1799    3071    1645
CTETRA     10620       1    1643    1401    1646    1645
CTETRA     10621       1    2667    2539    1884    2669
CTETRA     10622       1    1884    1836    1837    2667
CTETRA     10623       1    3211    3011    3013    3005
CTETRA     10624       1    1867    1882    1870    1869
CTETRA     10625       1    1217    2429    1882    1869
CTETRA     10626       1    1221     291    1392    1220
CTETRA     10627       1    1676     908    1813    1793
CTETRA     10628       1    2281     966    6843    4228
CTETRA     10629       1    2255    5176    5177    5167
CTETRA     10630       1    1605    6921    6440    6920
CTETRA     10631       1     803    1383     287     533
CTETRA     10632       1     803    1114    1556    1111
CTETRA     10633       1    1392     291     847    1217
CTETRA     10634       1    1460    2756    2155    2977
CTETRA     10635       1     737     738    1370     531
CTETRA     10636       1     806    1569    2973    1574
CTETRA     10637       1     806    2973    1845    1880
CTETRA     10638       1    3756    4509    4511    4467
CTETRA     10639       1    3719    5659    5584    5583
CTETRA     10640       1     397     599     600    1056
CTETRA     10641       1    1370    2671    1573    1571
CTETRA     10642       1     599    1459    1460    2155
CTETRA     10643       1    1678    1681    1460    1679
CTETRA     10644       1    1099    5243    5244    5228
CTETRA     10645       1    2316     678    2601    2317
CTETRA     10646       1    3455    3484    3456    2767
CTETRA     10647       1    3809    4716    4672    4732
CTETRA     10648       1    3455    2768    2770    2769
CTETRA     10649       1    3151    4672    4679    4678
CTETRA     10650       1    3761    2768    2325    2717
CTETRA     10651       1    2316    2324    2717    1921
CTETRA     10652       1    2322    5213    5214    5158
CTETRA     10653       1    3810    2325    3761    3336
CTETRA     10654       1    2325    3761    3336    2768
CTETRA     10655       1    2321    5158    5214    5159
CTETRA     10656       1    3019    5213    5157    5212
CTETRA     10657       1    2316    2718    3456    2325
CTETRA     10658       1    3811    6742    6741    5274
CTETRA     10659       1    3710    4925    4883    4931
CTETRA     10660       1    2316    1817    2767    2718
CTETRA     10661       1    2316    2767    2317    2601
CTETRA     10662       1    1512     621    1419    1418
CTETRA     10663       1    2346    4233    4232    4238
CTETRA     10664       1    1419    1511    1424     621
CTETRA     10665       1    1419    2761    1512    1513
CTETRA     10666       1    2970    6668    6744    6669
CTETRA     10667       1    1447    1971    1763    2464
CTETRA     10668       1     993     991    2283    1031
CTETRA     10669       1    6813    4232    6818    4238
CTETRA     10670       1    6840    2347    2346    6839
CTETRA     10671       1    1597    1965     706    1418
CTETRA     10672       1    1951    1512    1965    1966
CTETRA     10673       1    1030    1031     991     990
CTETRA     10674       1    2616    6895    5220    5256
CTETRA     10675       1     620     708    1419    1513
CTETRA     10676       1    1512    1968    1972    1966
CTETRA     10677       1    1537    2559    3812    1536
CTETRA     10678       1    1850     178     175    1811
CTETRA     10679       1    5134    1765    4898    2924
CTETRA     10680       1    1537    1141    1343    2559
CTETRA     10681       1       8    4969    3062       6
CTETRA     10682       1    2109    4584    4585    4582
CTETRA     10683       1     176    2134    1850     175
CTETRA     10684       1     900     504     276     754
CTETRA     10685       1    2417    1629     862     618
CTETRA     10686       1    1418    1965    1512    1514
CTETRA     10687       1    3813    3654    5184    3428
CTETRA     10688       1    1507    2444     708    2786
CTETRA     10689       1    1447    1448    1971    1512
CTETRA     10690       1    1507    1640    2786     708
CTETRA     10691       1     620     621    1419    1424
CTETRA     10692       1    1250    1251    2715     705
CTETRA     10693       1     208    3371      99    6513
CTETRA     10694       1    3792    5167    5166    5182
CTETRA     10695       1    1251     707    3814    3815
CTETRA     10696       1    1251    3815    3814    3702
CTETRA     10697       1    3523    4497    4498    4477
CTETRA     10698       1    3788    4502    4501    4507
CTETRA     10699       1    3816    3817    3818    2040
CTETRA     10700       1    3316    3034    3317    5489
CTETRA     10701       1    1251     704    1387    3702
CTETRA     10702       1    1251    1626    1253    2798
CTETRA     10703       1    1250    1251    1253    2715
CTETRA     10704       1    1779    3812    2462    3708
CTETRA     10705       1    1045     754    1537    1141
CTETRA     10706       1    1537    2132    3812    2849
CTETRA     10707       1     300    3307    2132    2849
CTETRA     10708       1     300    2157    2132    3307
CTETRA     10709       1    2194    6852    4936    6851
CTETRA     10710       1    1243    1543    2132    1244
CTETRA     10711       1     135    4945    4940    6856
CTETRA     10712       1     774    1700    1357    1699
CTETRA     10713       1    1636    1638    2591    2516
CTETRA     10714       1    2378    2377    1947    1925
CTETRA     10715       1    6796    4276    6835    4272
CTETRA     10716       1    1429    1427    2534    1426
CTETRA     10717       1     133    6717    6793    6718
CTETRA     10718       1     842    2414    1946    1047
CTETRA     10719       1    3556    6782    6783    6707
CTETRA     10720       1    2484    4377    4379    4378
CTETRA     10721       1    1946    3482    3481    1970
CTETRA     10722       1    1946    3805    3482    1047
CTETRA     10723       1    1240    2414    1047    3805
CTETRA     10724       1     842    1046    1240    1047
CTETRA     10725       1    3213    5120    5128    5121
CTETRA     10726       1    3524    4307    4384    4389
CTETRA     10727       1    2336    2365    2351    2335
CTETRA     10728       1    2336    2351    2373    2491
CTETRA     10729       1    2336    2335    2486    1941
CTETRA     10730       1    1583    3653    3343    2030
CTETRA     10731       1    2336     645    2373    2374
CTETRA     10732       1    3352    5443    5442    5518
CTETRA     10733       1    3795    4629    4634    4605
CTETRA     10734       1     854    1081    1449    1872
CTETRA     10735       1    1134    3424    1738    1928
CTETRA     10736       1    1739    2546    1694    2530
CTETRA     10737       1    1828    2426    2361    2425
CTETRA     10738       1    2291    6782    6707    6706
CTETRA     10739       1    2291    6782    6781    4956
CTETRA     10740       1    1135    1739    2530    2546
CTETRA     10741       1    3117    6330    6405    6406
CTETRA     10742       1    2844    1133    2835    2884
CTETRA     10743       1    1136    2848    2844    2835
CTETRA     10744       1    2544    1739    2546    1694
CTETRA     10745       1    2067    1636    2592    2591
CTETRA     10746       1    1429    1435    1438    1434
CTETRA     10747       1    1429    1435    1434    2352
CTETRA     10748       1    6782    6783    6866    4962
CTETRA     10749       1    1872    1764    2534    1328
CTETRA     10750       1    2608    2665    3068    3771
CTETRA     10751       1    3819    4425    4426    4427
CTETRA     10752       1    3316    5489    3317    5488
CTETRA     10753       1    2029    3141    3142    3001
CTETRA     10754       1    1327    1972    1448    1512
CTETRA     10755       1    3820    5864    5789    5788
CTETRA     10756       1    1429    1439    1438    1437
CTETRA     10757       1    3821    3443    6015    6014
CTETRA     10758       1    1429    2534    1441    1436
CTETRA     10759       1    3354    5119    5127    5120
CTETRA     10760       1    2698    6776    6701    6700
CTETRA     10761       1    3822    2006    3823    2123
CTETRA     10762       1    1441    2583    1436    2534
CTETRA     10763       1    2691    3824    2743    3144
CTETRA     10764       1     728     925     727     729
CTETRA     10765       1    1692    2743    2565    1916
CTETRA     10766       1    1329    2693    2691    2623
CTETRA     10767       1    1110    3234    3207    3659
CTETRA     10768       1    1112    2332    2857    2331
CTETRA     10769       1    1109    1391    1112    1111
CTETRA     10770       1    1112    1389    1388    2209
CTETRA     10771       1    1112    1388    2409    2332
CTETRA     10772       1    3318    3825    3826    3359
CTETRA     10773       1    2410    2409    2411    1388
CTETRA     10774       1    3659    1110    2409    3207
CTETRA     10775       1    2409    3827    2412    2411
CTETRA     10776       1    3659    1388    2175    3828
CTETRA     10777       1    3621    5179    5164    6845
CTETRA     10778       1    3044    6736    6660    6735
CTETRA     10779       1    1221    1392     590    1220
CTETRA     10780       1    1990    5173    5170    5171
CTETRA     10781       1    1111    3234    3207    1110
CTETRA     10782       1    6742    5274    5285    6907
CTETRA     10783       1    6920    6515    1605    6919
CTETRA     10784       1    2129    3829    2131    5266
CTETRA     10785       1     981    1770     716     982
CTETRA     10786       1     716     432     440    1873
CTETRA     10787       1     454    1582     453     451
CTETRA     10788       1     432    1772    1790    1898
CTETRA     10789       1    3830    4503    4492    4502
CTETRA     10790       1    1771    1786    1587    1774
CTETRA     10791       1    1714    1717    2628    2631
CTETRA     10792       1     939    5118    5090    5089
CTETRA     10793       1    2275    2564    4505    2475
CTETRA     10794       1    3232    4500    4501    4490
CTETRA     10795       1    1688     526    1924    1124
CTETRA     10796       1    2588    6294    6295    6219
CTETRA     10797       1    1587     982    1785    1770
CTETRA     10798       1    1718    2875    3294    1322
CTETRA     10799       1    1771    1782    1783    1785
CTETRA     10800       1    1771    1783    1772    1770
CTETRA     10801       1    2479    3097    2433    1223
CTETRA     10802       1     438     440     431    1223
CTETRA     10803       1     950    4902     353    2270
CTETRA     10804       1    2143    2454    2455    6116
CTETRA     10805       1     547    1668     544     553
CTETRA     10806       1    3058    4613    4605    4615
CTETRA     10807       1       8    3062    4975    6787
CTETRA     10808       1    1565    3515    2795    2752
CTETRA     10809       1    1663    1662    3212    3515
CTETRA     10810       1    3649    4574    4613    4614
CTETRA     10811       1     545     553    1195     547
CTETRA     10812       1    5889    3569    5813    5814
CTETRA     10813       1    3533    1774    3036    3509
CTETRA     10814       1    3533    1774    3509    1377
CTETRA     10815       1    1786    1774    3533    1377
CTETRA     10816       1    3533    3508    3509    3510
CTETRA     10817       1    3816    3316    3315    3360
CTETRA     10818       1    3142    6775    6700    6699
CTETRA     10819       1     838     457    1017    1582
CTETRA     10820       1    1547    5511    5512    5436
CTETRA     10821       1    2875    3831    3676    3402
CTETRA     10822       1    2875    3676    3831    3832
CTETRA     10823       1     613     535     784    2822
CTETRA     10824       1    3343    5821    5746    5745
CTETRA     10825       1    2875    2873    3832    2948
CTETRA     10826       1    2875    3061    3831    1665
CTETRA     10827       1     833    2809    2572    2873
CTETRA     10828       1    1789    2873    2875    2948
CTETRA     10829       1    1261    1263    3093    1821
CTETRA     10830       1     855    4763    4766    4770
CTETRA     10831       1     263     264     259     536
CTETRA     10832       1     758    1127    1260    1364
CTETRA     10833       1    3102    3103    1199    2279
CTETRA     10834       1     465    1353    1199    2809
CTETRA     10835       1     741    4732    4765    4733
CTETRA     10836       1    3102    2809    3105    2223
CTETRA     10837       1    3798    5846    5770    5845
CTETRA     10838       1    2890    4275    4268    4267
CTETRA     10839       1    1199    1197    2809    2223
CTETRA     10840       1    1127    1650    1259    3120
CTETRA     10841       1    6798    4278    6797    2880
CTETRA     10842       1    3097    3019    3092    3096
CTETRA     10843       1    3097    3092    3019    1279
CTETRA     10844       1    1991    3097    3019    1279
CTETRA     10845       1    3088    4457    3089    4289
CTETRA     10846       1    2166    4453    4451    4441
CTETRA     10847       1    3097    3833    1279    1991
CTETRA     10848       1    3321    4322    4403    4404
CTETRA     10849       1    3097    1307    3833    3096
CTETRA     10850       1    3097    1279    3833    1280
CTETRA     10851       1    1754    2709    1501    1076
CTETRA     10852       1    1470    1466    1483    1464
CTETRA     10853       1    3701    1470    1469    1984
CTETRA     10854       1    3701    1984    2597    1470
CTETRA     10855       1    1605    1606    6441    6516
CTETRA     10856       1    1983    1501    1470    1464
CTETRA     10857       1    1470    1467    3224    2600
CTETRA     10858       1    1983    1754    1984    1501
CTETRA     10859       1    2426    5050    5062    5063
CTETRA     10860       1    3318    5562    5487    5486
CTETRA     10861       1    3315    3363    3361    3318
CTETRA     10862       1    3322    2039    3034    2041
CTETRA     10863       1    6974    6973    4331    5411
CTETRA     10864       1    1018    3212    1647    1962
CTETRA     10865       1    1387    1250    2333    2329
CTETRA     10866       1    3412    4333    4349    4332
CTETRA     10867       1    1648    1642    1631    3072
CTETRA     10868       1    1648    1641    1640    1642
CTETRA     10869       1     808    1017     838     457
CTETRA     10870       1    1018    2749    1010    3072
CTETRA     10871       1    3316    3360    5638    5562
CTETRA     10872       1    2662    3723    3834    3835
CTETRA     10873       1    2662    3723    3488    3834
CTETRA     10874       1    2037    4502    4508    4503
CTETRA     10875       1    2662    3834    3488    2487
CTETRA     10876       1      49    5047    5058    5046
CTETRA     10877       1    6784    6865    6783    4976
CTETRA     10878       1    3836    3837    3838    3521
CTETRA     10879       1    2947    4979    3150    6784
CTETRA     10880       1    2947    4976    6783    4962
CTETRA     10881       1    5114     902    5102    5118
CTETRA     10882       1    3150    6785    6784    4979
CTETRA     10883       1    2970    2971    2292    5304
CTETRA     10884       1    3624    3583    3357    1694
CTETRA     10885       1    3690    6668    6593    6592
CTETRA     10886       1    2506    2529    3624    2624
CTETRA     10887       1    3624    2848    3541    1694
CTETRA     10888       1    3624    2530    2624    2529
CTETRA     10889       1       8    3062    6787    6712
CTETRA     10890       1    2625    2530    3624    1694
CTETRA     10891       1     760     882    1096    1824
CTETRA     10892       1     229    1350     227     225
CTETRA     10893       1    3839    5183    3813    5168
CTETRA     10894       1    1736    1737    1701    3205
CTETRA     10895       1     774     777    1698    1737
CTETRA     10896       1    6280    3578    3765    6281
CTETRA     10897       1    1354    1015    1357    1356
CTETRA     10898       1    2203    2204    3088    2393
CTETRA     10899       1    3398    2771    3755    3711
CTETRA     10900       1    5461    4738    7023    7024
CTETRA     10901       1    3398    3840    3841    3399
CTETRA     10902       1    3842    4348    4334    4347
CTETRA     10903       1    3287    4336    4341    4346
CTETRA     10904       1    3843    5706    5631    5630
CTETRA     10905       1    1734    2641    1107    2516
CTETRA     10906       1    1250     702     705    2715
CTETRA     10907       1    3844    3845    5783    5858
CTETRA     10908       1    1640     706    2715     708
CTETRA     10909       1    1599    1962    1017    1018
CTETRA     10910       1    2328    1386    1231    1385
CTETRA     10911       1    1250     704    1387    1251
CTETRA     10912       1    3846    5178    5165    5166
CTETRA     10913       1     702    2499     703     705
CTETRA     10914       1    3235    4480    4479    4476
CTETRA     10915       1    3766    5114    5101    5123
CTETRA     10916       1     278    1305     702    1597
CTETRA     10917       1    1867    1869    1868    1893
CTETRA     10918       1    2180    4307    4389    4306
CTETRA     10919       1    1109    1221    1113    1115
CTETRA     10920       1    2938    3132    1716    3847
CTETRA     10921       1    1398    1444     590    3298
CTETRA     10922       1    2236    3276    2237    2150
CTETRA     10923       1     591     590    2938     592
CTETRA     10924       1    2938     590    3264     592
CTETRA     10925       1     952    3642    4681    4281
CTETRA     10926       1    2172    2064    5624    5623
CTETRA     10927       1    5400    6963    4344    6962
CTETRA     10928       1    2788    3260    2938     590
CTETRA     10929       1     651    1749     251    2780
CTETRA     10930       1    2549    2550    1902    1903
CTETRA     10931       1    2913    6682    6606    6681
CTETRA     10932       1     596     597     598    3274
CTETRA     10933       1    1726    5257    5259    5260
CTETRA     10934       1     914     913    1915    1691
CTETRA     10935       1     877     255     878     881
CTETRA     10936       1    2616    5221    5220    5284
CTETRA     10937       1    2780    1904    1749    2779
CTETRA     10938       1    2263    1904    2602    1903
CTETRA     10939       1    1727    5257    5260    5256
CTETRA     10940       1    3681    5231    5239    5236
CTETRA     10941       1    1696    1750    2545    1903
CTETRA     10942       1    2264    1904    2782    2779
CTETRA     10943       1    2264    1904    2781    2782
CTETRA     10944       1    2340    2095    3474    2094
CTETRA     10945       1    2340    3400    2648    3258
CTETRA     10946       1    2196    4625    4640    4626
CTETRA     10947       1    1613    2094    2340    3474
CTETRA     10948       1    5435    4461    4510    6998
CTETRA     10949       1    2056    2196    1546    4545
CTETRA     10950       1    2339    2305    2342    2303
CTETRA     10951       1     649    2341    2342    2339
CTETRA     10952       1    2339    2340    2094    2253
CTETRA     10953       1     739     711    6315     740
CTETRA     10954       1    6390     739     723     711
CTETRA     10955       1    5447    4557    7009    7010
CTETRA     10956       1     739    6315     711    6390
CTETRA     10957       1     739     858    1977     856
CTETRA     10958       1    3848    4584    4586    4550
CTETRA     10959       1     739     858    6392     723
CTETRA     10960       1    3609    2112    3608    4632
CTETRA     10961       1      36     156      38      37
CTETRA     10962       1    3360    5638    5639    3316
CTETRA     10963       1     521      37     156      36
CTETRA     10964       1    5586     912    5662    5661
CTETRA     10965       1     259    1043    1042     505
CTETRA     10966       1    3344    3849    5445    3731
CTETRA     10967       1     773     996    1138     617
CTETRA     10968       1    2217    4467    4466    4550
CTETRA     10969       1    3719    5734    3850    5659
CTETRA     10970       1     996    1551      37      36
CTETRA     10971       1    2498    3851    1987    2652
CTETRA     10972       1    3848    4584    4550    4549
CTETRA     10973       1    1652    3531    1705    3851
CTETRA     10974       1    1703    1652    1651    2496
CTETRA     10975       1     500    1539    2914    1538
CTETRA     10976       1    3344    3306    5595    5520
CTETRA     10977       1    1539    2914    1538    1536
CTETRA     10978       1    2914    1538    1536    3366
CTETRA     10979       1    2504    4372    4376    4371
CTETRA     10980       1    2425    5049    5062    5050
CTETRA     10981       1    1920    1603    2311    1334
CTETRA     10982       1    2127    4381    5415    4382
CTETRA     10983       1    6785    6786    6863    4983
CTETRA     10984       1     675     890    1046    1047
CTETRA     10985       1    1539    1579    1536    1779
CTETRA     10986       1    2042    5641    5642    5566
CTETRA     10987       1    2065    5773    5698    5697
CTETRA     10988       1    2780    1749     251    2779
CTETRA     10989       1    1172    5702    5777    5778
CTETRA     10990       1    3852    4448    4446    4447
CTETRA     10991       1     134    6716    6640    6715
CTETRA     10992       1    2502    1021    1020    3565
CTETRA     10993       1     560    1462     941     869
CTETRA     10994       1       8    6714    3149       7
CTETRA     10995       1    2012    2013    2014    1558
CTETRA     10996       1    2012     976     974     906
CTETRA     10997       1    3720    1150    3853    1148
CTETRA     10998       1    1150    3853    1148    1151
CTETRA     10999       1    3854    5167    5182    5183
CTETRA     11000       1    2792    3569    1151    2793
CTETRA     11001       1    1151    1155    1150    3855
CTETRA     11002       1    1151    3853    2793    3569
CTETRA     11003       1    1151    3855    1150    3853
CTETRA     11004       1     554     544    3856    3419
CTETRA     11005       1    3611    5119    5126    5127
CTETRA     11006       1     554    3713    3712    3797
CTETRA     11007       1     552    2657    2656    3713
CTETRA     11008       1    3857    3544    1291    1278
CTETRA     11009       1    3858    4497    4496    4494
CTETRA     11010       1    1278    3545    3859    3857
CTETRA     11011       1    3204    4446    4449    4327
CTETRA     11012       1    3268    2972    3829    5218
CTETRA     11013       1    1278    1291    1279    1280
CTETRA     11014       1    1278    2459    3859    3860
CTETRA     11015       1    3859    1278    3857    2459
CTETRA     11016       1    1974     767    2695    2296
CTETRA     11017       1     100    6665    6664    6740
CTETRA     11018       1    2186    1520    2696    1871
CTETRA     11019       1     242    4942    4943    4929
CTETRA     11020       1    2296    2694     856    3453
CTETRA     11021       1    6344    6269    6345    3225
CTETRA     11022       1    6797    6833    6834    4278
CTETRA     11023       1    3083    4271    6854    6853
CTETRA     11024       1     767    2296    2694    2695
CTETRA     11025       1    2296    3453    2295    2694
CTETRA     11026       1    2122    2694    2296    2295
CTETRA     11027       1    1818    1816    2969    1856
CTETRA     11028       1    2981    1819    1817    2984
CTETRA     11029       1    3861    4373    4333    4332
CTETRA     11030       1    1815    2965    1192    2967
CTETRA     11031       1    1816    2978    2718    2969
CTETRA     11032       1    1816    2979    2718    2978
CTETRA     11033       1    6741    6916    5268    6908
CTETRA     11034       1    3422    4384    4385    4389
CTETRA     11035       1    1816    2718    2979    1533
CTETRA     11036       1    3862    2785    3820    3863
CTETRA     11037       1    3811    6741    6666    6917
CTETRA     11038       1    1272    1244    1275    1273
CTETRA     11039       1    3344    3306    5596    5595
CTETRA     11040       1    3864    4467    4551    4468
CTETRA     11041       1    3424    2884    2883    1928
CTETRA     11042       1    2255    5167    3839    5176
CTETRA     11043       1    2823    3424    3423    2883
CTETRA     11044       1    1738    1928    2956    1256
CTETRA     11045       1    2603    1903    3553    1750
CTETRA     11046       1    3552    1738    1750    3437
CTETRA     11047       1    1210    1721    2635    1212
CTETRA     11048       1    2635    2643    1708    1212
CTETRA     11049       1    1560    6854    4926    4939
CTETRA     11050       1    6793     133    6718    6794
CTETRA     11051       1    3083    4271    4272    6854
CTETRA     11052       1    2635    1708    2643    2633
CTETRA     11053       1    1450    1210    1190    1752
CTETRA     11054       1    2635    1721    1720    1741
CTETRA     11055       1    2635    1708    2633    2634
CTETRA     11056       1    2635    1721    1752    1720
CTETRA     11057       1     744    6855    6856    4940
CTETRA     11058       1    3524    4307    4308    4384
CTETRA     11059       1    2635    1708    2634    2627
CTETRA     11060       1    1408    1874    2170    1682
CTETRA     11061       1    1683    1697    2492    1820
CTETRA     11062       1    3106    1822    2892    1823
CTETRA     11063       1    1838    1843    1555     805
CTETRA     11064       1    3630    6743    6742    5285
CTETRA     11065       1     803    1566    1391    1111
CTETRA     11066       1    6516    3865    3690    6592
CTETRA     11067       1     954     955     956    1803
CTETRA     11068       1    1678    1270    1681    1697
CTETRA     11069       1    3802    6631    6707    6632
CTETRA     11070       1    3639    6629    6630    6554
CTETRA     11071       1    1822     762    1683     972
CTETRA     11072       1    1204    1775     585     542
CTETRA     11073       1    1937    2882    3478    2826
CTETRA     11074       1    6255    3117    6331    6330
CTETRA     11075       1    3866    4998    4997    5022
CTETRA     11076       1    3145    6478    3118    3640
CTETRA     11077       1    2823    1928    2881    1531
CTETRA     11078       1     960    1202    1132    1526
CTETRA     11079       1    1527    2884    1134    1928
CTETRA     11080       1      49    5047    5048    5059
CTETRA     11081       1    2882    1934    3478    3785
CTETRA     11082       1    2881    3784    2883    3732
CTETRA     11083       1    3867    5864    5865    5789
CTETRA     11084       1    6766    6882    6883    5048
CTETRA     11085       1    1934    2882    2881    3785
CTETRA     11086       1    2765    3635    3518    3075
CTETRA     11087       1    2765    3635    3075     371
CTETRA     11088       1    3868    3869    3331    3332
CTETRA     11089       1    5896    1583    5821    3870
CTETRA     11090       1    2765    3529    2603    3618
CTETRA     11091       1    5892    2192    5816    5817
CTETRA     11092       1    2765    3635    2770    2769
CTETRA     11093       1    3795    4606    4605    4634
CTETRA     11094       1    2765    3635     371    3620
CTETRA     11095       1    2765    2766    3518    2769
CTETRA     11096       1    1708    2643    3607    2677
CTETRA     11097       1    1209    1708    2627    2675
CTETRA     11098       1    2172    5624    5549    5548
CTETRA     11099       1    3863    5863    5787    5862
CTETRA     11100       1    2198    4390    4318    4393
CTETRA     11101       1    1708    2643    2677    1212
CTETRA     11102       1    1708    2627    2675    1709
CTETRA     11103       1    1711    1709    2634    1708
CTETRA     11104       1    1992    2653    3397    2267
CTETRA     11105       1    2267    1992    3871    3397
CTETRA     11106       1    2653     303    3389    1609
CTETRA     11107       1    2653    1229    2267    2266
CTETRA     11108       1    1094    3681    3272    5236
CTETRA     11109       1    3147    6714       8    6789
CTETRA     11110       1    2618    2653     880    2266
CTETRA     11111       1    2416    2618    3461    2415
CTETRA     11112       1    2645    2653    1229    3389
CTETRA     11113       1     853    1763    1303    1447
CTETRA     11114       1    2347    3872    5172    6841
CTETRA     11115       1    1619      99     100    3873
CTETRA     11116       1    2413    5216    5264    5265
CTETRA     11117       1    3874    5174    5173    5172
CTETRA     11118       1    3874    5170    5174    5169
CTETRA     11119       1    1989    5161    5173    5171
CTETRA     11120       1    1764    2583    2863    2507
CTETRA     11121       1     100    6590    6589    6665
CTETRA     11122       1    1764    2583    1441    2534
CTETRA     11123       1    3829    5218    5266    5267
CTETRA     11124       1    1427    1428    1439    2591
CTETRA     11125       1    3875    5113    5122    5099
CTETRA     11126       1    3344    3386    3632    1535
CTETRA     11127       1    1296    2661    3557    1016
CTETRA     11128       1    2426    5051    5063    5064
CTETRA     11129       1    1290    2660    3487    2661
CTETRA     11130       1    1294    1016    1356    2661
CTETRA     11131       1    1285    1289     829    2709
CTETRA     11132       1    1468    1987    1986    2364
CTETRA     11133       1    1346    1187    1347    2967
CTETRA     11134       1    1692    3357    3356    1695
CTETRA     11135       1    2808    2807    3876    3589
CTETRA     11136       1    2905    5962    5887    5886
CTETRA     11137       1    2743    2565    2691    3144
CTETRA     11138       1    2111    4582    4571    4583
CTETRA     11139       1    2111    4582    4570    4571
CTETRA     11140       1    3877    4577    2465    4583
CTETRA     11141       1    3305    4593    4587    4588
CTETRA     11142       1    2288    2743    2565    2744
CTETRA     11143       1       8       6    4968    4969
CTETRA     11144       1    1896    1854    3614    1893
CTETRA     11145       1    2109    4582    4581    4584
CTETRA     11146       1    3006    5305    5301    5300
CTETRA     11147       1    1852    1893    1854    1853
CTETRA     11148       1    3210    2300    2401    1684
CTETRA     11149       1    1827    3452    1852    1893
CTETRA     11150       1    1852    3452    2666    3614
CTETRA     11151       1    3778    1477    5238    5226
CTETRA     11152       1    1852    1858    2495    1853
CTETRA     11153       1    1852    2666    3452    1858
CTETRA     11154       1     730    2546    1696    1750
CTETRA     11155       1    1693    1691    2549    2547
CTETRA     11156       1    2097    1366     532     534
CTETRA     11157       1     418    7038    2470    5208
CTETRA     11158       1    2070    5201    5144    5198
CTETRA     11159       1    1739    2848    2530    1694
CTETRA     11160       1    6788    4975    6861    6787
CTETRA     11161       1    1695    1916    1691    3549
CTETRA     11162       1    2625    1694    2546    2530
CTETRA     11163       1    6862    6786    4981    6863
CTETRA     11164       1    1640    1253    1620    1619
CTETRA     11165       1    1595    1597     702    2715
CTETRA     11166       1    1552    5363    5375    5376
CTETRA     11167       1    2629    2727    2721    2631
CTETRA     11168       1    1788    6141    6066    6925
CTETRA     11169       1    1648    1640    1253    1642
CTETRA     11170       1    1425     685     683    1422
CTETRA     11171       1    1640    1253    1642    1620
CTETRA     11172       1     509    4758    4757    4768
CTETRA     11173       1    1856    2969    2968    2965
CTETRA     11174       1     299    4769    4770    4767
CTETRA     11175       1    1274    1281     348    1856
CTETRA     11176       1    2165    4454    4452    4453
CTETRA     11177       1    2161    2628    3664    3564
CTETRA     11178       1    3580    2801    6282    6283
CTETRA     11179       1     681    5707    5631    2128
CTETRA     11180       1    2316    1818    1254    1817
CTETRA     11181       1    2326    2325    2501    2500
CTETRA     11182       1    1274    2483    1277    1856
CTETRA     11183       1    2281    6842    4228    6843
CTETRA     11184       1    2214    3107    1868    1853
CTETRA     11185       1    1816    1856    2965    2969
CTETRA     11186       1    1102    2657     551    3020
CTETRA     11187       1     454    1582     464     457
CTETRA     11188       1    1791    2657     552     551
CTETRA     11189       1    5265    5264    2413    5271
CTETRA     11190       1    2129    2130    5285    5273
CTETRA     11191       1    1605    6516    6441    6920
CTETRA     11192       1    1960    1663    1687    1656
CTETRA     11193       1    3385    5287    5296    5297
CTETRA     11194       1    1387    2329    3595    1385
CTETRA     11195       1    2256    2323    5159    5168
CTETRA     11196       1    2572    2873    2945    2876
CTETRA     11197       1    3052    6593    6668    6669
CTETRA     11198       1    3878    4997    5005    4996
CTETRA     11199       1    1193    1192    1277    3129
CTETRA     11200       1    2855    1139     373     374
CTETRA     11201       1    2981    1819    1816    1817
CTETRA     11202       1    1113     292     290     589
CTETRA     11203       1    1709    2626    3879    2728
CTETRA     11204       1    1989    2254    2318    5161
CTETRA     11205       1     997    3133    1318    2495
CTETRA     11206       1     561    2358     560     564
CTETRA     11207       1    1181    1193    1191    1194
CTETRA     11208       1    6841    5174    3872    5172
CTETRA     11209       1    1188    1193    3129    1192
CTETRA     11210       1    3736    6848    5200    6847
CTETRA     11211       1    1191    2659    1190    1194
CTETRA     11212       1    1038    6321    6245    2088
CTETRA     11213       1    1187    1192    2966    2967
CTETRA     11214       1    3468    5152    5146    6849
CTETRA     11215       1    1967    3119    1023    1969
CTETRA     11216       1    3119    3880    3881    3115
CTETRA     11217       1    3119     932    2014    3118
CTETRA     11218       1    3119    3565    2014    1020
CTETRA     11219       1    3119    1020    1023    3122
CTETRA     11220       1    3650    4673    4723    4674
CTETRA     11221       1    3119    3115    3114    1969
CTETRA     11222       1    3882    5172    3874    5173
CTETRA     11223       1    3119    3118    3145    3114
CTETRA     11224       1    2012    3565    2502    1020
CTETRA     11225       1     990    1031    1001    1030
CTETRA     11226       1    3829    5266    5218    5217
CTETRA     11227       1     992    2502    1021    1022
CTETRA     11228       1    2129    3268    3829    5267
CTETRA     11229       1    2345    3883    6739     100
CTETRA     11230       1     974     994     977     976
CTETRA     11231       1    2970    6670    3384    3052
CTETRA     11232       1     974     994     999     977
CTETRA     11233       1    3884    5219    6838    6839
CTETRA     11234       1    3310    3879    3311    3885
CTETRA     11235       1     974     999    3807    3742
CTETRA     11236       1    3886      57    3720    3387
CTETRA     11237       1     974    3566     976     975
CTETRA     11238       1    3204    3852    4449    4446
CTETRA     11239       1    3887    3888    3889    5804
CTETRA     11240       1    1214    1215    3214    1213
CTETRA     11241       1    3638    6543    6544    6468
CTETRA     11242       1    1085    5332    5345    5333
CTETRA     11243       1    1756    1238    3214    1213
CTETRA     11244       1    3027    3053    3054    3770
CTETRA     11245       1    1057    5482    5407    5406
CTETRA     11246       1    3688    3890    3319    3321
CTETRA     11247       1    3625    3891    1008     413
CTETRA     11248       1    1150    3784    3855    1155
CTETRA     11249       1    3886    1519    3720      57
CTETRA     11250       1     881    1213    1761    1097
CTETRA     11251       1    1203    1625    1627    1775
CTETRA     11252       1     254     255     256     879
CTETRA     11253       1    1819    1531    1817    2823
CTETRA     11254       1    3886    3342    3784    3780
CTETRA     11255       1    3643    4681    4680    4674
CTETRA     11256       1    3344    5596    3892    5597
CTETRA     11257       1    1509    3893    3050    2177
CTETRA     11258       1    1214    1238    3214    3436
CTETRA     11259       1    2187    5598    5523    5522
CTETRA     11260       1    3892    5672    5596    5671
CTETRA     11261       1    3806    4320    4425    4321
CTETRA     11262       1     955    2299     956    1216
CTETRA     11263       1    2299    1622    1214    3199
CTETRA     11264       1    1214    3894    2297    1238
CTETRA     11265       1    1167    1286    1933    2992
CTETRA     11266       1    1673    1381    2516    1733
CTETRA     11267       1    1162    6543    6468    6467
CTETRA     11268       1     179     605    1159     180
CTETRA     11269       1    4424    2074    4323    4431
CTETRA     11270       1     924     926     927    1152
CTETRA     11271       1    2385    5126    5125    5136
CTETRA     11272       1    3320    4404    4402    4401
CTETRA     11273       1    2338    2855     909    6769
CTETRA     11274       1    1636    1158    1635    2516
CTETRA     11275       1    1107    1635    2516    2641
CTETRA     11276       1    3023    2641    2639    2640
CTETRA     11277       1    1150    3886     791    3784
CTETRA     11278       1    2346    4233    6840    4232
CTETRA     11279       1     115     286     289     285
CTETRA     11280       1     774    1737    1702     777
CTETRA     11281       1     777    1698    1737     663
CTETRA     11282       1    3632    5597    2187    5522
CTETRA     11283       1    3073    3069    2148    4565
CTETRA     11284       1    2148    4565    5447    5448
CTETRA     11285       1    5821    5746    5822    2030
CTETRA     11286       1    1735    2609     777    3588
CTETRA     11287       1    5447    4565    7010    5448
CTETRA     11288       1    3386    4557    4565    4556
CTETRA     11289       1     777    3684     776     663
CTETRA     11290       1    3386    4638    4557    4556
CTETRA     11291       1    1702     777    1735    1732
CTETRA     11292       1    1735     777    1737    3588
CTETRA     11293       1    1617    1918    1420    1905
CTETRA     11294       1     691    1909    1420    1423
CTETRA     11295       1    2219    4941    4927    4926
CTETRA     11296       1     691    1420    1422    1423
CTETRA     11297       1    1010    1048     807    1012
CTETRA     11298       1     279    1011    2940    1648
CTETRA     11299       1    1393     689    1970     690
CTETRA     11300       1     689     686    1748     692
CTETRA     11301       1    4506    2275    4517    4505
CTETRA     11302       1     683     686     692     684
CTETRA     11303       1    2405    3007    2404    3366
CTETRA     11304       1    2983    5161    1989    2318
CTETRA     11305       1     727    1928    1134    1738
CTETRA     11306       1    3382    5280    5225    5279
CTETRA     11307       1     349     358    1579    2914
CTETRA     11308       1    2321    5214    5215    5159
CTETRA     11309       1     986    1946    1748    1047
CTETRA     11310       1    2985    3268    5268    5219
CTETRA     11311       1    1324    1603    2914     358
CTETRA     11312       1    3846    5170    5178    5177
CTETRA     11313       1    3366    1538    1268    2914
CTETRA     11314       1    1580    1272    1581    1244
CTETRA     11315       1    3073    3560    2187    2148
CTETRA     11316       1    3699    2126    3527    2726
CTETRA     11317       1    1779    1539    1244    2132
CTETRA     11318       1    2165    4452    4431    4451
CTETRA     11319       1    2074    4324    4431    4452
CTETRA     11320       1    3537    3538    5943    3895
CTETRA     11321       1    1573    3896    2784    2850
CTETRA     11322       1    1566    1569    1573    1568
CTETRA     11323       1    5783    2128    2922    3844
CTETRA     11324       1    1569    1573    1568    2182
CTETRA     11325       1    1573    3361    1574    3896
CTETRA     11326       1    2080    2032    2033    2027
CTETRA     11327       1    3731    4644    4638    4648
CTETRA     11328       1    2002    6848    6849    5146
CTETRA     11329       1    1573    3361    1569    1574
CTETRA     11330       1    5292    2632    3010    2188
CTETRA     11331       1    1572    1573    1574    3300
CTETRA     11332       1    1573    1574    3300    3896
CTETRA     11333       1    3897    5964    5963    6039
CTETRA     11334       1    1649     810     860     801
CTETRA     11335       1    1649     860     810    3402
CTETRA     11336       1    1649     809     801     815
CTETRA     11337       1    2156    2555    2554    2261
CTETRA     11338       1     397     599    1056    1459
CTETRA     11339       1    4594    2428    2466    4574
CTETRA     11340       1    3877    4583    4571    4572
CTETRA     11341       1    2349    2366    3200    3491
CTETRA     11342       1    2428    4573    4613    4574
CTETRA     11343       1    3877    4583    4572    4577
CTETRA     11344       1     602    1649     860    1643
CTETRA     11345       1    3898    4394    4320    4399
CTETRA     11346       1    2301    1783    1785    1899
CTETRA     11347       1    1897    1772    1790    2463
CTETRA     11348       1    1897    1900    2461    1899
CTETRA     11349       1    1783    1900     596    1784
CTETRA     11350       1    1873    1770    1898    2461
CTETRA     11351       1    3395    6527    3393    1475
CTETRA     11352       1    3376    6748    6673    6672
CTETRA     11353       1    1589    1785    2590    1782
CTETRA     11354       1     967    5118    5115    5117
CTETRA     11355       1    3061    2569    3060    3105
CTETRA     11356       1    2904    4539    4538    4591
CTETRA     11357       1    3899    5116    5115    5129
CTETRA     11358       1    2875    3061    2948    3831
CTETRA     11359       1    2304    5831    5756    5755
CTETRA     11360       1    3061    1665    3672    3831
CTETRA     11361       1    1032    3112    6750    6674
CTETRA     11362       1    2875    3402    1665    3831
CTETRA     11363       1     832    3402    2875    1322
CTETRA     11364       1    1789    2948    2875    3061
CTETRA     11365       1    1664    1667    2494    3060
CTETRA     11366       1    2837    7030    7029     131
CTETRA     11367       1    1346    1541    2962    1347
CTETRA     11368       1    3900    5093    5113    5094
CTETRA     11369       1    1154    1528    1155    1934
CTETRA     11370       1    5283    5275    2617    1397
CTETRA     11371       1    1346    1525    1519    1149
CTETRA     11372       1    1149    1519    3425    1521
CTETRA     11373       1    2981    1521    1819    2984
CTETRA     11374       1    2006    6004    5929    5928
CTETRA     11375       1    3901    3268    2972    3829
CTETRA     11376       1    1149    3425    1519    1150
CTETRA     11377       1    3872    6841    6842    5174
CTETRA     11378       1    2699    2077    3448    2701
CTETRA     11379       1    3382    5280    3383    3777
CTETRA     11380       1    1147    1815    1346    1149
CTETRA     11381       1    2534    2519    2521    2384
CTETRA     11382       1    2519    3902    2384    3903
CTETRA     11383       1    2425    5057    5061    5062
CTETRA     11384       1    5109    6769    5085     909
CTETRA     11385       1    2127    4378    4380    4370
CTETRA     11386       1    3422    4389    3524    4384
CTETRA     11387       1    2519    2863    2862    2807
CTETRA     11388       1    2534    2519    2863    2583
CTETRA     11389       1    2519    2521    2520    2583
CTETRA     11390       1    2108    5517    5593    5518
CTETRA     11391       1    1748    1048    1010    1012
CTETRA     11392       1    1636    2592    2591    1638
CTETRA     11393       1    5446    4557    4644    7009
CTETRA     11394       1    2591    2516    2614    1732
CTETRA     11395       1    1427    1872    1441    2534
CTETRA     11396       1    1287    2663    1286    2660
CTETRA     11397       1     448    1024    1158    1108
CTETRA     11398       1    1672    2488    2334    2377
CTETRA     11399       1    1673    1674    1702    1732
CTETRA     11400       1    2290    5012    5011    5010
CTETRA     11401       1     656     659     658    3164
CTETRA     11402       1    1672    2383    1671    2334
CTETRA     11403       1    1438    1434    1435    2057
CTETRA     11404       1    1436    1435    2352    2365
CTETRA     11405       1    3369    3715    2201    3716
CTETRA     11406       1    2063    6973    4331    4345
CTETRA     11407       1    1428    1438    1382     775
CTETRA     11408       1    2063    3904    3412    4332
CTETRA     11409       1    1441    1436    1927    1437
CTETRA     11410       1    2983    5218    5162    5217
CTETRA     11411       1    6815    6816    6814    4231
CTETRA     11412       1    2486    2490    3164    2350
CTETRA     11413       1    3699    2501    2482    2481
CTETRA     11414       1    1920    2405    2923    2311
CTETRA     11415       1    2405    2480    2481    3007
CTETRA     11416       1    2081    2481    2482    2480
CTETRA     11417       1    2235    5113    5093    5112
CTETRA     11418       1    2791    3905    3906    3461
CTETRA     11419       1    2057    3197    2896    3667
CTETRA     11420       1    5818    5742    2020    3387
CTETRA     11421       1    2901    2650    2646    2341
CTETRA     11422       1    3197    2057     656    2350
CTETRA     11423       1    2855    6694     202    6693
CTETRA     11424       1    3877    4573    4577    4572
CTETRA     11425       1    5892    3907    3794    5891
CTETRA     11426       1    6769    6694    2338    2855
CTETRA     11427       1     739     740    6316    6317
CTETRA     11428       1    3364    3908    3044     928
CTETRA     11429       1    3882    5172    5173    5162
CTETRA     11430       1    2791    3461    3906    2416
CTETRA     11431       1    2791    3170    3905    3461
CTETRA     11432       1    1914    1660    2341    2791
CTETRA     11433       1    2346    6840    4233    6841
CTETRA     11434       1    3909    4499    4489    4474
CTETRA     11435       1    3910    4496    4476    4475
CTETRA     11436       1    6781    6868    4914    4956
CTETRA     11437       1    2290    3742    2289    2291
CTETRA     11438       1    2747    2749    2752    2750
CTETRA     11439       1    1018    2749    1565    1010
CTETRA     11440       1     890     676     375     260
CTETRA     11441       1    1018    2749    1631    3212
CTETRA     11442       1    3818    5791    5715    5790
CTETRA     11443       1    3827    4411    4410    4421
CTETRA     11444       1    2749    3911    1631    3212
CTETRA     11445       1    2749    3012    3515    2752
CTETRA     11446       1    2947    4976    6784    6783
CTETRA     11447       1     127    5098    5108     909
CTETRA     11448       1    2749    3012    3912    3911
CTETRA     11449       1    2845     374    2855     202
CTETRA     11450       1    3556    6783    6708    6707
CTETRA     11451       1    3133    1004    2697    2820
CTETRA     11452       1    3913    4491    4502    4492
CTETRA     11453       1    3483    4309    4308    4498
CTETRA     11454       1     310    1472    1284    1675
CTETRA     11455       1    3133    2495    1852    1858
CTETRA     11456       1    1703    1430    1433    1431
CTETRA     11457       1    1862      80    1007    2439
CTETRA     11458       1    3837    5495    5496    5420
CTETRA     11459       1      80    1065    1963    1575
CTETRA     11460       1    1663    2220    3793    2227
CTETRA     11461       1    3515    3793    2220    2586
CTETRA     11462       1    3913    4502    4491    4501
CTETRA     11463       1    1663    3011    3515    3212
CTETRA     11464       1    6668    3630    6667    6592
CTETRA     11465       1    1198    1650    2220    1200
CTETRA     11466       1    3189    4578    4587    4579
CTETRA     11467       1    3188    4581    4579    4586
CTETRA     11468       1    3623    6040    6041    5965
CTETRA     11469       1    1960    1663     453    1962
CTETRA     11470       1    2635    2633    2643    1741
CTETRA     11471       1    3305    4593    4579    4587
CTETRA     11472       1    2167    1860    2628    2626
CTETRA     11473       1    2629    2728    1709    2725
CTETRA     11474       1     305    4717    4734    4718
CTETRA     11475       1    2629    2720    2630    2631
CTETRA     11476       1    1714    2626    2727    2628
CTETRA     11477       1    2627    1709    2728    2626
CTETRA     11478       1    1714    2629    2627    2630
CTETRA     11479       1    1073    1455    1430    1453
CTETRA     11480       1    1470    1501    1466    1464
CTETRA     11481       1    1974    1977    1976    2674
CTETRA     11482       1     856     858    2296    3914
CTETRA     11483       1    1561    1562    4938    4928
CTETRA     11484       1    3372    5270    5264    5263
CTETRA     11485       1    2320    5264    5215    5263
CTETRA     11486       1    3481    3915    3408    3409
CTETRA     11487       1    3779    5287    5271    5270
CTETRA     11488       1    6594    3916    2401    6595
CTETRA     11489       1    1500    1077    1498    1075
CTETRA     11490       1    3789    5412    2503    4374
CTETRA     11491       1     665    4990    5026    5025
CTETRA     11492       1     132     160     159    2050
CTETRA     11493       1    1077    1076    1465    1464
CTETRA     11494       1    1075    1465    1455    1500
CTETRA     11495       1    3789    2503    4331    4374
CTETRA     11496       1     572     573     574     513
CTETRA     11497       1     572     513    2790     514
CTETRA     11498       1     513     514    2877    2790
CTETRA     11499       1     513    3917    2996    2889
CTETRA     11500       1    1688     513     512    2584
CTETRA     11501       1    1229    3871    2267     296
CTETRA     11502       1    1229     296     298     496
CTETRA     11503       1     495    1229    2100    1228
CTETRA     11504       1    3826    3904    2503    3715
CTETRA     11505       1    1229    1228     495     298
CTETRA     11506       1    2645    2100    1227    2649
CTETRA     11507       1    3864    4552    4468    4551
CTETRA     11508       1    3830    4492    4503    4469
CTETRA     11509       1    1227    1230    3258    1228
CTETRA     11510       1    2653    1229    3389    3397
CTETRA     11511       1    3735    4495    4492    4470
CTETRA     11512       1    2645    3389    1229    2100
CTETRA     11513       1    3383    5294    5286    5280
CTETRA     11514       1    1227    1230    1229    2267
CTETRA     11515       1    1865    1402    3182    1404
CTETRA     11516       1     673    2355    1866    2356
CTETRA     11517       1    1566    1569    1574    1573
CTETRA     11518       1    2574    6223    6299    6224
CTETRA     11519       1    5396    4438    6959    4439
CTETRA     11520       1    3316    5639    5563    5638
CTETRA     11521       1    1747    5826    5825    5901
CTETRA     11522       1     856     739     749    1977
CTETRA     11523       1    2581    2297    2202    3151
CTETRA     11524       1    1643    2368    1401     600
CTETRA     11525       1    1846    1880    1845    1876
CTETRA     11526       1    2928    6608    6532    6607
CTETRA     11527       1     806    1880    1574    2973
CTETRA     11528       1    2700    4762    4761    4774
CTETRA     11529       1    3854    5182    5189    5183
CTETRA     11530       1     803    1556    1555    1111
CTETRA     11531       1    1976    3645    2674     858
CTETRA     11532       1    1555    3081    3157    3079
CTETRA     11533       1    1844    3157    3209    3365
CTETRA     11534       1    2347    5163    6839    6840
CTETRA     11535       1    1844    3365    3209    2183
CTETRA     11536       1    2281    6842    6843    5169
CTETRA     11537       1    1555    3079    1844    1567
CTETRA     11538       1     381     380     379    1415
CTETRA     11539       1    3264    1028    2813    2113
CTETRA     11540       1    1065    1007    3616    1052
CTETRA     11541       1    1060    1051    1054    1415
CTETRA     11542       1    1060    1415    1054    1061
CTETRA     11543       1    1067    1078    1051    1068
CTETRA     11544       1     768     769    1067    1575
CTETRA     11545       1     555    2572    2945     550
CTETRA     11546       1    1199    1201    2224    1200
CTETRA     11547       1     555     556    1196     553
CTETRA     11548       1    3918    4480    4477    4307
CTETRA     11549       1    3919    2876    3801    2945
CTETRA     11550       1    2945    1197    3919    2809
CTETRA     11551       1    3916    6596    6520    6595
CTETRA     11552       1    2983    2318    2413    5217
CTETRA     11553       1    1197    2224    1196    1487
CTETRA     11554       1    3919    1197    3799    1487
CTETRA     11555       1    3782    5286    5270    5269
CTETRA     11556       1    3015    1193    3018    1191
CTETRA     11557       1    3884    5163    5219    6839
CTETRA     11558       1    2985    6838    5219    5268
CTETRA     11559       1    3874    5174    5170    5173
CTETRA     11560       1    1274    1281    1856    1192
CTETRA     11561       1    1976    3638    3426    3645
CTETRA     11562       1    2878    1608    5031    5030
CTETRA     11563       1    1183    1182    1275    1273
CTETRA     11564       1    1156    2677    2792    2793
CTETRA     11565       1    3920    6332    6257    6256
CTETRA     11566       1     330    6334    6259    6258
CTETRA     11567       1    1255    2480    2405    1579
CTETRA     11568       1    2360    3512    2361    3471
CTETRA     11569       1    2483    2969    1818    2500
CTETRA     11570       1    2128    5782    5783    5707
CTETRA     11571       1    2483    2326    1818    1255
CTETRA     11572       1    3921    4323    4322    4424
CTETRA     11573       1    2047    4326    4325    4454
CTETRA     11574       1    2483    2481    2482    2500
CTETRA     11575       1    2503    4376    4374    4377
CTETRA     11576       1    2503    4374    4376    4375
CTETRA     11577       1    1273    1581    2133    1276
CTETRA     11578       1    3922    4370    4371    4378
CTETRA     11579       1    1673    2067    2591    1636
CTETRA     11580       1    1274    1277    1581    1276
CTETRA     11581       1    2483    1581    1277    2568
CTETRA     11582       1    3602    2157    2156    2396
CTETRA     11583       1    1243    1675    2133    2134
CTETRA     11584       1    3318    3825    5486    3789
CTETRA     11585       1    3705     176     177     301
CTETRA     11586       1    2729    1537    1141    1343
CTETRA     11587       1    1655    6446    6447    6371
CTETRA     11588       1    3391    5263    5214    5227
CTETRA     11589       1    3373    5227    5269    5263
CTETRA     11590       1    1243    1244    2133    1675
CTETRA     11591       1     301     176     177     175
CTETRA     11592       1    2224    6300    6299    6375
CTETRA     11593       1    3318    3359    5636    3825
CTETRA     11594       1    1279    3019    1991    1292
CTETRA     11595       1    2396     175    3602    2157
CTETRA     11596       1    3095    3391    3003    3373
CTETRA     11597       1     301    2156    3705     176
CTETRA     11598       1     473    3602     176    2156
CTETRA     11599       1    3923    5891    5890    5966
CTETRA     11600       1    2063    5485    3789    5410
CTETRA     11601       1    3602     473    2396    2156
CTETRA     11602       1    2180    4307    4306    4480
CTETRA     11603       1     902    5102    5101    5114
CTETRA     11604       1    1712    6606    6531    6530
CTETRA     11605       1    2925    2389    6380    1550
CTETRA     11606       1    2360    2381    2363     377
CTETRA     11607       1    6351    6350    3924    6426
CTETRA     11608       1    5460    7023    4689    7022
CTETRA     11609       1    3925    2085    5754    5753
CTETRA     11610       1    2116    6573    6497    6572
CTETRA     11611       1    2141    4701    4694    4699
CTETRA     11612       1     473    1851     176    3602
CTETRA     11613       1    3602    2134    2396    1851
CTETRA     11614       1    1304    4891    5053    5051
CTETRA     11615       1    3602     472    1851    2396
CTETRA     11616       1    3190    4579    4580    4586
CTETRA     11617       1    2642    2639    2908    1313
CTETRA     11618       1    3926    2360    3512     811
CTETRA     11619       1    1105     247    1108    2641
CTETRA     11620       1     248     213    1108     247
CTETRA     11621       1    3924    6351    6426    6427
CTETRA     11622       1    1313    2640    2641    1106
CTETRA     11623       1    3410    1894    2908    3411
CTETRA     11624       1     135    4945    4946    4940
CTETRA     11625       1    3410    2642     436    2908
CTETRA     11626       1    3410    2642    2511     436
CTETRA     11627       1     521    1894    1104    1311
CTETRA     11628       1     744    4926    6855    4940
CTETRA     11629       1    6742    6741    5274    6907
CTETRA     11630       1     996     248      37     617
CTETRA     11631       1    6916    6908    7065    5268
CTETRA     11632       1    1106    2640    2641    1160
CTETRA     11633       1    2126    4745    4744    4759
CTETRA     11634       1    1323    3509    1774    1379
CTETRA     11635       1    2360    2906     377    2387
CTETRA     11636       1     668    6531    6532    6456
CTETRA     11637       1    2912    5185    6847    5200
CTETRA     11638       1    2368    1649     860     801
CTETRA     11639       1    6791    6857    6858    4957
CTETRA     11640       1     860    1646     799    3535
CTETRA     11641       1    6793    7066    4945    6856
CTETRA     11642       1     872     860     602    1322
CTETRA     11643       1     860     801     799    1646
CTETRA     11644       1    1220    3299    1444    2208
CTETRA     11645       1    1398    2174    3298    1851
CTETRA     11646       1    2616    6753    6678    6677
CTETRA     11647       1    3757    5032    5027    5036
CTETRA     11648       1    1709    3885    3310    2675
CTETRA     11649       1     471    3304     474    4601
CTETRA     11650       1    2627    1709    2626    3310
CTETRA     11651       1    1709    3310    3885    3879
CTETRA     11652       1    3674    2683     638    2158
CTETRA     11653       1    1709    2626    3310    3879
CTETRA     11654       1    1709    2728    3718    2725
CTETRA     11655       1    1709    2728    2622    3718
CTETRA     11656       1    3481    3482    1919    1406
CTETRA     11657       1    3131    5071     357    5072
CTETRA     11658       1     196    5106     393     902
CTETRA     11659       1    2414    3481    3427    3906
CTETRA     11660       1    3042    4385    4384    4390
CTETRA     11661       1    1712    6681    6606    6605
CTETRA     11662       1    2414    1914    3481    3906
CTETRA     11663       1    2930    4394    4395    4393
CTETRA     11664       1    2410    4407    4405    4406
CTETRA     11665       1    3740    4472    4471    4542
CTETRA     11666       1    3481    1406    1970    3482
CTETRA     11667       1    2414    3481    3805    3427
CTETRA     11668       1    3186    4536    6994    4532
CTETRA     11669       1    2404    3259     403    2708
CTETRA     11670       1    3909    4499    4474    4473
CTETRA     11671       1     624    5064    4890    5051
CTETRA     11672       1    6791    4957    6792    6857
CTETRA     11673       1    1268    3366    2914    2404
CTETRA     11674       1    2559    1538    1537    1141
CTETRA     11675       1    3275    4496    4475    4489
CTETRA     11676       1    3927    4489    4490    4496
CTETRA     11677       1    3334    4499    4500    4489
CTETRA     11678       1    2404    2708    2706    2707
CTETRA     11679       1    2404    2706    3520    2707
CTETRA     11680       1     400    1602    2402    2403
CTETRA     11681       1    5186    2069    5199    5201
CTETRA     11682       1    1324    1268    1538    2914
CTETRA     11683       1    3326    4702    4703    4691
CTETRA     11684       1    2404    2403    2311    1602
CTETRA     11685       1    3928    2168    3497    3819
CTETRA     11686       1    1976    1975    1974    1973
CTETRA     11687       1    2404    2311    3259    3007
CTETRA     11688       1    2405    2311    2404    3007
CTETRA     11689       1    3126     153     231     214
CTETRA     11690       1    2954    3125    3124    2499
CTETRA     11691       1    3124    3126     155    3125
CTETRA     11692       1    1308    3124     703    2499
CTETRA     11693       1    1308    3124    1814     154
CTETRA     11694       1     463     647     714     461
CTETRA     11695       1    2954    2499    1965    3929
CTETRA     11696       1    1814    3124    1305    2464
CTETRA     11697       1    3591     971    3592    1713
CTETRA     11698       1    2153    6672    6673    6597
CTETRA     11699       1    4806    1744    4793    4794
CTETRA     11700       1    1711    3930    3719    3850
CTETRA     11701       1    3591    1787    3038    1713
CTETRA     11702       1     628    3591    1713    1787
CTETRA     11703       1    3864    4469    4468    4552
CTETRA     11704       1    3591    3931    3592     971
CTETRA     11705       1    2153    6671    6672    6596
CTETRA     11706       1    3591    2636    3038    1784
CTETRA     11707       1    6750    1032    6675    1397
CTETRA     11708       1    3719    5733    5734    5658
CTETRA     11709       1    2360    3512    2362    2361
CTETRA     11710       1    2734    3932    2746    3933
CTETRA     11711       1    3498    2387    2360     377
CTETRA     11712       1     979    4304    5419    4483
CTETRA     11713       1    3042    4317    4390    4384
CTETRA     11714       1    2734    3932    2735    2746
CTETRA     11715       1    6521    1685    2153    6596
CTETRA     11716       1    3735    4492    4495    4491
CTETRA     11717       1    2734    2745    2728    2622
CTETRA     11718       1    2734    2727    2746    2735
CTETRA     11719       1    2734    2728    2727    2736
CTETRA     11720       1    3934    5889    5890    5814
CTETRA     11721       1    2465    4577    4594    4595
CTETRA     11722       1    3751    2399    3474    2310
CTETRA     11723       1    3304    4587    4600    4588
CTETRA     11724       1     662    1062     422     643
CTETRA     11725       1    1132     510     960    1133
CTETRA     11726       1    2295    1033    3453    3914
CTETRA     11727       1    1067    2287    2295    1079
CTETRA     11728       1    1629     773     616     617
CTETRA     11729       1    2050    4958    4973    4972
CTETRA     11730       1    2452    4931    4936    4935
CTETRA     11731       1     159    4941    4947    4942
CTETRA     11732       1    1628    1629    1637    1635
CTETRA     11733       1    6792    4945    6857    4957
CTETRA     11734       1    3922    4370    4386    4392
CTETRA     11735       1    3048    4390    4391    4385
CTETRA     11736       1    1629    1108     617     213
CTETRA     11737       1    1106    1105    1107    2641
CTETRA     11738       1    6988    4516    5425    4504
CTETRA     11739       1    5424    4473    6986    6987
CTETRA     11740       1    2564    4499    4504    4505
CTETRA     11741       1    1102    2479    2433    1101
CTETRA     11742       1    2564    4499    4473    4504
CTETRA     11743       1    1308     155     154    1307
CTETRA     11744       1    1308    3124     154     155
CTETRA     11745       1    2130    5272    5288    5289
CTETRA     11746       1     703     704     705    3935
CTETRA     11747       1    1078    2864     700    1040
CTETRA     11748       1    2972    5218    5163    5162
CTETRA     11749       1    2254    5160    5161    5171
CTETRA     11750       1      98    6662    6737    6738
CTETRA     11751       1     703    1367     704    3935
CTETRA     11752       1    1308    1309     702     703
CTETRA     11753       1    3805    3409    3936    3427
CTETRA     11754       1    3481    3482    3408    1919
CTETRA     11755       1    3409    3481    3805    3408
CTETRA     11756       1    3805    3248    3408    3482
CTETRA     11757       1    3716    4373    4397    4398
CTETRA     11758       1    3890    3320    3321    4402
CTETRA     11759       1    1240    2414    3805    3427
CTETRA     11760       1    1065    1068    3616    2286
CTETRA     11761       1    3629    5634    5709    5710
CTETRA     11762       1    1660    3481    1914    1970
CTETRA     11763       1    3805    3248    2724    3936
CTETRA     11764       1    1240    2724    3805    1047
CTETRA     11765       1    3427    3481    3805    3409
CTETRA     11766       1    2387    6540    6616    6541
CTETRA     11767       1    2089    2941    3377    2895
CTETRA     11768       1    3069    4556    4566    4555
CTETRA     11769       1    3118    2089    2014    3567
CTETRA     11770       1    1863    2815    2865    1002
CTETRA     11771       1    2840    6039    6038    6114
CTETRA     11772       1    3617    1002    1863    2865
CTETRA     11773       1    3937    2941    3567    3566
CTETRA     11774       1    3923    5965    5890    5889
CTETRA     11775       1    2089    2014     904    2090
CTETRA     11776       1    2063    5410    3789    4331
CTETRA     11777       1    2089    2895    2091    2941
CTETRA     11778       1     202    6695    6620    6619
CTETRA     11779       1     940    5116    5117    5115
CTETRA     11780       1     202    6619    6618    6694
CTETRA     11781       1    3114    3116    1969    3115
CTETRA     11782       1    3927    4494    4496    4490
CTETRA     11783       1    2703    2559    2731    2558
CTETRA     11784       1    3918    4477    4480    4476
CTETRA     11785       1    2476    1267    1993    2681
CTETRA     11786       1    2703    2731    2559    2679
CTETRA     11787       1    2410    4405    4407    4318
CTETRA     11788       1    3938    5572    5648    5573
CTETRA     11789       1    6763    6885    6886    5060
CTETRA     11790       1    1267    2558    2703    2476
CTETRA     11791       1    2714    2681    2702    1624
CTETRA     11792       1     369    5101    5103    5100
CTETRA     11793       1    5413    4377    6975    6976
CTETRA     11794       1    3789    5411    4374    4331
CTETRA     11795       1    2864    3679    6098    1053
CTETRA     11796       1    3669    1637     247    3041
CTETRA     11797       1    3669     249     215    3041
CTETRA     11798       1    3318    3826    3825    3789
CTETRA     11799       1    2417     171    1639    1637
CTETRA     11800       1    5412    6975    4377    4374
CTETRA     11801       1    2417    2419     171    1637
CTETRA     11802       1    2418    3669    2417     214
CTETRA     11803       1    3669     214    2418     215
CTETRA     11804       1    1370    1836    2671    1964
CTETRA     11805       1    2853    2851    2671    2860
CTETRA     11806       1    2853    2854    2041    2182
CTETRA     11807       1    2258    2784    2671    1571
CTETRA     11808       1    6633    6557    6558    3802
CTETRA     11809       1    3802    6556    6632    6557
CTETRA     11810       1    3866    4997    3000    5020
CTETRA     11811       1    3641    4918    4917    4998
CTETRA     11812       1    1569    1844    2183    1567
CTETRA     11813       1    3939    3826    3715    3369
CTETRA     11814       1    2864     700    6096     701
CTETRA     11815       1    2856    1883    2667    1836
CTETRA     11816       1    1068    1079     700     699
CTETRA     11817       1    2478    4385    4386    4388
CTETRA     11818       1    1068     699     701    2287
CTETRA     11819       1    1884    1836    2667    1883
CTETRA     11820       1    1836    2667    2856    2672
CTETRA     11821       1    1704    3940    6028    6029
CTETRA     11822       1    2244    6192    6268    6193
CTETRA     11823       1    1884    1836      79    1837
CTETRA     11824       1    1442    2671    1836    2857
CTETRA     11825       1    1035    1000    3399     998
CTETRA     11826       1    3047    4318    4407    4319
CTETRA     11827       1    1074    1480    1479    1482
CTETRA     11828       1    2947    3556    6783    6784
CTETRA     11829       1      93      17     743     852
CTETRA     11830       1    2420    5377    5390    5378
CTETRA     11831       1    1000    3399     998     994
CTETRA     11832       1    1130    1000     994    3399
CTETRA     11833       1    3777    5280    5286    5269
CTETRA     11834       1    1654    6446    6522    6447
CTETRA     11835       1    3777    5269    5226    5280
CTETRA     11836       1    1130    2031    3398    3399
CTETRA     11837       1    1873    2722    3941    2723
CTETRA     11838       1    3921    4403    4322    4323
CTETRA     11839       1    3898    4399    4400    4394
CTETRA     11840       1    2412    4407    4411    4319
CTETRA     11841       1    2504    4396    4372    4371
CTETRA     11842       1    3431    4401    4400    4399
CTETRA     11843       1    3157    3320    3431    3286
CTETRA     11844       1    1873    3941    1222     573
CTETRA     11845       1    1278    3545    1222    3941
CTETRA     11846       1     465    2809    1199    1197
CTETRA     11847       1    3401    4392    4391    4395
CTETRA     11848       1    1008    4351    4359    4352
CTETRA     11849       1    1725    1222    2789     574
CTETRA     11850       1     413    4353    4360    4355
CTETRA     11851       1    1278    1222    3545    3544
CTETRA     11852       1    3242    5628    5703    5704
CTETRA     11853       1    1278    1279    1245    1223
CTETRA     11854       1    2157     474    2394    2684
CTETRA     11855       1    1163    4346    4353    4355
CTETRA     11856       1    3416    5629    5554    5553
CTETRA     11857       1    3789    2503    5412    5487
CTETRA     11858       1    2093    5492    5493    5417
CTETRA     11859       1    1902    3747    3942    3943
CTETRA     11860       1    1902    3764    2781    3944
CTETRA     11861       1    1693    3540    2547    2550
CTETRA     11862       1    1902    3944    3945    3946
CTETRA     11863       1    1904    2782    2831    3947
CTETRA     11864       1    2128    5631    5706    5707
CTETRA     11865       1    3948    4336    4335    4403
CTETRA     11866       1    3949    5780    5779    5855
CTETRA     11867       1    1904    2782    3947    3945
CTETRA     11868       1     641    6565    6564    6640
CTETRA     11869       1    3945    2781    1902    1904
CTETRA     11870       1    4987    3950    4923    4984
CTETRA     11871       1     339    6337    6262    6261
CTETRA     11872       1    3890    4402    4335    4334
CTETRA     11873       1    3951    4346    4347    4335
CTETRA     11874       1     524     172    4738    5460
CTETRA     11875       1    2831    2779    1904    2780
CTETRA     11876       1    1822    1263    1821    3086
CTETRA     11877       1    3802    6557    6558    2283
CTETRA     11878       1    3556    6708    6709    6633
CTETRA     11879       1    3043    4318    4317    4405
CTETRA     11880       1     369    5123    5101    5100
CTETRA     11881       1    3483    4317    4384    4308
CTETRA     11882       1    1822     762    1823    1806
CTETRA     11883       1    3401    4371    4392    4396
CTETRA     11884       1    6762    6886    6887    5065
CTETRA     11885       1    1263    1821    3086    3093
CTETRA     11886       1     481     262     758     480
CTETRA     11887       1    1306      39    1551    1224
CTETRA     11888       1    3904    4375    4332    4331
CTETRA     11889       1    2385    5126    5111    5125
CTETRA     11890       1    2494    1257    1821    1258
CTETRA     11891       1    1822    3086    1821    2493
CTETRA     11892       1    3093    2493    3060    1821
CTETRA     11893       1    3094    3093    2493    3060
CTETRA     11894       1    1565    1662    2795    3515
CTETRA     11895       1    2638    1931    2792    3450
CTETRA     11896       1    3890    4402    4403    4335
CTETRA     11897       1    5633     681    2922    5632
CTETRA     11898       1    3951    4335    4336    4346
CTETRA     11899       1    2074    4324    4336    4323
CTETRA     11900       1    3320    4398    4402    4334
CTETRA     11901       1    3297    1153    3570    2391
CTETRA     11902       1    3321    4403    4402    4404
CTETRA     11903       1    3570    1932    1931    2391
CTETRA     11904       1    3570    2993    2840    3897
CTETRA     11905       1    1144    1154    3297    2388
CTETRA     11906       1    3904    4373    3861    4332
CTETRA     11907       1    1846    1408    1839    1411
CTETRA     11908       1     710     725    6538    6463
CTETRA     11909       1    2157    2462     795    2684
CTETRA     11910       1     135    4945    4957    4946
CTETRA     11911       1    2939    6373    6374    6298
CTETRA     11912       1    2156     473    2554    3705
CTETRA     11913       1    2935    1875    1876    1874
CTETRA     11914       1    3952    6450    6375    6374
CTETRA     11915       1    1478    5227    5213    5241
CTETRA     11916       1    2224    6375    6299    6374
CTETRA     11917       1    1875    1874    2935    1982
CTETRA     11918       1    3953    6370    6371    6295
CTETRA     11919       1    3954    6576    6651    6652
CTETRA     11920       1    3256    6275    6274    6350
CTETRA     11921       1    3925    5679     612    5603
CTETRA     11922       1    2156    2554    2406    2261
CTETRA     11923       1     624    1304    5051    4890
CTETRA     11924       1     745     746    2403     509
CTETRA     11925       1    1845    3689    1875    1876
CTETRA     11926       1    1845    1876    2975    3689
CTETRA     11927       1    3319    3689    3694    1875
CTETRA     11928       1    2682    4667    4785    4784
CTETRA     11929       1    1278    3545    3941    3859
CTETRA     11930       1    1278    3857    2459    1291
CTETRA     11931       1    3545    3955    3857    3956
CTETRA     11932       1    3716    4397    4401    4398
CTETRA     11933       1    3715    4373    4375    4372
CTETRA     11934       1    3715    4397    4373    4372
CTETRA     11935       1    1390    4907    5116    4908
CTETRA     11936       1    2232    2929    2234    2233
CTETRA     11937       1    1537    3812    2132    1536
CTETRA     11938       1    3857    3859    2924    3545
CTETRA     11939       1    3393    6678    6677     971
CTETRA     11940       1    3049    5250    5253    5222
CTETRA     11941       1     172    4755    2225    4738
CTETRA     11942       1    1713    6605    6530    6529
CTETRA     11943       1    2006    6079    6004    6003
CTETRA     11944       1    3545    3955    3219    3857
CTETRA     11945       1    2789    3545    3955    3957
CTETRA     11946       1    3203    4352    4339    4351
CTETRA     11947       1    3206    1164    2046    4326
CTETRA     11948       1     775     776     777    2231
CTETRA     11949       1    2054    2896    1434    2057
CTETRA     11950       1     104    5406    1057    2076
CTETRA     11951       1    1699    3729    1034     776
CTETRA     11952       1    3488    3729    3379    3724
CTETRA     11953       1     523    2101     172    1344
CTETRA     11954       1    3488    3723    1356    1034
CTETRA     11955       1    3899    5129    5137    5116
CTETRA     11956       1    3498    3926    2360    3470
CTETRA     11957       1    2221    4542    4311    4310
CTETRA     11958       1    3498    2387    1140     742
CTETRA     11959       1    2035    4540    2036    4313
CTETRA     11960       1     813    5105    5096    5095
CTETRA     11961       1    3958    5011    5000    4999
CTETRA     11962       1    3129    1277    2457    2966
CTETRA     11963       1     172    3959    4737     163
CTETRA     11964       1    2053    4470    4471    4495
CTETRA     11965       1    3498    3470    3500    3926
CTETRA     11966       1    2101     918     172    1344
CTETRA     11967       1    1161    3498    2387    3500
CTETRA     11968       1    3500    3498    2387    3470
CTETRA     11969       1     949    5006    5001    4904
CTETRA     11970       1     742    1139    3498    1161
CTETRA     11971       1    1099    1180    5243    1997
CTETRA     11972       1    3498    1139    1140    3501
CTETRA     11973       1    1915    3581    1918    2781
CTETRA     11974       1    1595    1648    1640    2715
CTETRA     11975       1     278    1417    1597    1595
CTETRA     11976       1    2288    2742    1942    1916
CTETRA     11977       1    1641    1640     685     279
CTETRA     11978       1    2070     168    2944    2190
CTETRA     11979       1    1942    2742    2442    1421
CTETRA     11980       1    5460    7023    4738    4689
CTETRA     11981       1    2771    2605    2145    3205
CTETRA     11982       1    2771    3755    3960    3205
CTETRA     11983       1    3398    3841    1698    3399
CTETRA     11984       1    3961    1737    3755    3398
CTETRA     11985       1    1737    3755    3398    2771
CTETRA     11986       1    3279    2771    3755    3960
CTETRA     11987       1    3279    3345    3278     959
CTETRA     11988       1    1273    1675    2134    2133
CTETRA     11989       1    2605    3279    3960    2771
CTETRA     11990       1     352    5079    5078    5080
CTETRA     11991       1    2521    2352    2366    2365
CTETRA     11992       1    1436    2521    2534    2583
CTETRA     11993       1    2222    4405    4309    4310
CTETRA     11994       1    2521    2353    2352    2384
CTETRA     11995       1     950    6777    6702    6701
CTETRA     11996       1    2521    2522    2366    2353
CTETRA     11997       1    2521    2522    2520    3962
CTETRA     11998       1    1220    1882    2678    1881
CTETRA     11999       1    1835    1836    1371    1964
CTETRA     12000       1      83     390    1217    1884
CTETRA     12001       1    3922    4371    4370    4392
CTETRA     12002       1    3401    2504    3922    4371
CTETRA     12003       1     172    3959     163     918
CTETRA     12004       1    3285    4281    4438    4434
CTETRA     12005       1     354    3131    3223    5075
CTETRA     12006       1    1219    1882    2331    1883
CTETRA     12007       1    3963    3809     741    3177
CTETRA     12008       1    1281    1147    1189     926
CTETRA     12009       1    1882    2331    1883    2135
CTETRA     12010       1    1565    2749    3515    2752
CTETRA     12011       1    1195    1199    1200    1201
CTETRA     12012       1    2036    2048    4417    4314
CTETRA     12013       1     553     556    1653     554
CTETRA     12014       1    3712     552     554     556
CTETRA     12015       1    3128    3303    3964    3965
CTETRA     12016       1    2421    4723    4722    4674
CTETRA     12017       1     741    3966    4765    2712
CTETRA     12018       1     546    1385     551    1961
CTETRA     12019       1    3809    4733    4716    4732
CTETRA     12020       1     545     465     452     547
CTETRA     12021       1     556    3776    1653    3712
CTETRA     12022       1     553     550     556     552
CTETRA     12023       1    2657    3095    1336    3967
CTETRA     12024       1     551    1961    1385    1384
CTETRA     12025       1    3800    3394     712    3009
CTETRA     12026       1    2395    3965    3128    2466
CTETRA     12027       1    3403    5296    5301    5303
CTETRA     12028       1    3403    5294    5301    5296
CTETRA     12029       1    1790     550    2463    2453
CTETRA     12030       1    1770    2723    1785    1899
CTETRA     12031       1    2240    5018    6778    5019
CTETRA     12032       1     981    1587    1323    1774
CTETRA     12033       1    3190    4593    4592    4580
CTETRA     12034       1    2036    2904    4590    2035
CTETRA     12035       1    1372    6552    6551    6627
CTETRA     12036       1    1829     718    1830     751
CTETRA     12037       1    3506     718    1829    3328
CTETRA     12038       1    1826     725    2228    3513
CTETRA     12039       1    3506    3512    3511    1378
CTETRA     12040       1    2207    5673    5748    5749
CTETRA     12041       1    3968    2030    5823    5747
CTETRA     12042       1    3128    3964    3246    2465
CTETRA     12043       1     945    3185    5029    5027
CTETRA     12044       1    1591    1830    1378    3512
CTETRA     12045       1    1021    3002    3565     992
CTETRA     12046       1    1829    1798     751    1830
CTETRA     12047       1    2127    4369    4380    4382
CTETRA     12048       1    1588    1124    1123    1591
CTETRA     12049       1    1378    1591    2276    1830
CTETRA     12050       1    1123    1798    1378    2276
CTETRA     12051       1    3075    5749    5824    5825
CTETRA     12052       1    2789    2511    2790     574
CTETRA     12053       1    2995     156      38      36
CTETRA     12054       1    3128    2966    2457    2466
CTETRA     12055       1    2945    2572    2876     550
CTETRA     12056       1     435    2453    2876     550
CTETRA     12057       1    3610    5113    5112    5119
CTETRA     12058       1    1311    2073      36    2995
CTETRA     12059       1      37     213     161     617
CTETRA     12060       1    1551      37      36      39
CTETRA     12061       1    2663    1925    3362    2377
CTETRA     12062       1    6767    5048    5098    6882
CTETRA     12063       1    2379    1949    3362    1925
CTETRA     12064       1    3878    4999    5005    4997
CTETRA     12065       1    1290    3362    1286    1933
CTETRA     12066       1    3000    5020    4997    4996
CTETRA     12067       1    2663    3362    1290    3487
CTETRA     12068       1    1947    1949    3362    1940
CTETRA     12069       1    1944    3362    2379    1949
CTETRA     12070       1    3362    1949    1943    1940
CTETRA     12071       1    1713    1088     668     628
CTETRA     12072       1    2872    2931    3148    3101
CTETRA     12073       1    2222    4405    4317    4309
CTETRA     12074       1    2673     769    2674    3914
CTETRA     12075       1    1414    1067    1080    1037
CTETRA     12076       1    3199    1622    1214    3894
CTETRA     12077       1     382     643    1414     769
CTETRA     12078       1    3523    4308    4477    4498
CTETRA     12079       1    3858    4493    4497    4494
CTETRA     12080       1     901    5089    5102    5118
CTETRA     12081       1    2673     769    1080    1414
CTETRA     12082       1    1973    2670    2277    1298
CTETRA     12083       1    2695     749     767    1974
CTETRA     12084       1    2673    2088    3969    1084
CTETRA     12085       1     623    5064    5063    5068
CTETRA     12086       1    6169    1033    6244    6168
CTETRA     12087       1    4428    2551    4429    2867
CTETRA     12088       1    3384    2153    6596    6671
CTETRA     12089       1    3228    4495    4493    4494
CTETRA     12090       1    3796    4498    4493    4472
CTETRA     12091       1    2673    1973    3969    2674
CTETRA     12092       1    1913    3905    5911    5912
CTETRA     12093       1    1913    3905    1917    1914
CTETRA     12094       1    1913     405    3905    1914
CTETRA     12095       1    2181    6700    6701    6625
CTETRA     12096       1    6626    6551    1372    3001
CTETRA     12097       1    1754    2709    1166    1984
CTETRA     12098       1    1983    1320    1464    1987
CTETRA     12099       1    1652    2498    3722    3851
CTETRA     12100       1    1320    1464    1652    1703
CTETRA     12101       1    1117     878    1118    1120
CTETRA     12102       1     881    1824    1213    1096
CTETRA     12103       1     944    1390    1440    4994
CTETRA     12104       1    5069    6879    6878    6770
CTETRA     12105       1     851     316     293     315
CTETRA     12106       1     593     521     156    2995
CTETRA     12107       1    1853    3530    1858    3108
CTETRA     12108       1     979    4483    5419    5420
CTETRA     12109       1     849    1861    2497     964
CTETRA     12110       1    1215    3415    2064    3970
CTETRA     12111       1    2214    3107    2740    1868
CTETRA     12112       1    2539    2668    1837    1889
CTETRA     12113       1    5396    4438    4280    6959
CTETRA     12114       1    1867    1870    1892    1868
CTETRA     12115       1     390    1217     289      83
CTETRA     12116       1    5465    4728    7027    7028
CTETRA     12117       1    3436    3435    3430    1215
CTETRA     12118       1    1862      79    2439    1837
CTETRA     12119       1    1867    1884    1882    1869
CTETRA     12120       1    3769    6205    6129    6204
CTETRA     12121       1    2290    4999    5010    5011
CTETRA     12122       1    1213    1215    3214    3970
CTETRA     12123       1    1215    3970    2064    3214
CTETRA     12124       1    3506    3472     710     725
CTETRA     12125       1    1007    1827    3452    1004
CTETRA     12126       1    1217    1869    2214    2429
CTETRA     12127       1    6777    6702    6778     950
CTETRA     12128       1    2698    5079     352    5080
CTETRA     12129       1    2134    1677    1851    1850
CTETRA     12130       1    2698    4901    5079    5080
CTETRA     12131       1    1835    2436    1836    1964
CTETRA     12132       1    1690     913    1692    1135
CTETRA     12133       1    1230    1227    1955    2267
CTETRA     12134       1    1372    6702    6627    6626
CTETRA     12135       1    1011     282     686    1010
CTETRA     12136       1    1946    2414    3481    3805
CTETRA     12137       1     250     252    1617     251
CTETRA     12138       1    1372    6701    6702    6626
CTETRA     12139       1     747    1539    1580     753
CTETRA     12140       1     551    3758     554    1961
CTETRA     12141       1    5619    3971    3090    5620
CTETRA     12142       1    2906    2381    6689    6688
CTETRA     12143       1     544     553    1668    1653
CTETRA     12144       1     951    6956    6957    4676
CTETRA     12145       1     551    3758    2657    3713
CTETRA     12146       1    3650    4673    4672    4716
CTETRA     12147       1    1385    3595    1384    1961
CTETRA     12148       1    1387    1385    3595    1384
CTETRA     12149       1    1180    4893    4892    5243
CTETRA     12150       1    2427    1516    1515    5053
CTETRA     12151       1    1960    1961     544    1656
CTETRA     12152       1     552     550    3636    2656
CTETRA     12153       1    2329    1961    3596    3595
CTETRA     12154       1    2329    1961    3595    1385
CTETRA     12155       1    1961    3595    3856    3596
CTETRA     12156       1    1693    2545    1696    2546
CTETRA     12157       1    1695    2548    3547    3548
CTETRA     12158       1    6974    4374    5411    4331
CTETRA     12159       1    3357    2624    3601    3583
CTETRA     12160       1    1695    3357    2548    1694
CTETRA     12161       1     320     588     319     853
CTETRA     12162       1    2528    2531    1834    1927
CTETRA     12163       1    1695    2625    3357    1694
CTETRA     12164       1    1163    4341    4353    4346
CTETRA     12165       1    6688    3471    6613    2906
CTETRA     12166       1     172    5536     918    5537
CTETRA     12167       1    1818    2718    2500    2969
CTETRA     12168       1    2843    4696    4710    4711
CTETRA     12169       1    2316    2326    2718    2325
CTETRA     12170       1    2718    1533    3456    3972
CTETRA     12171       1    2981    2718    1533    3456
CTETRA     12172       1    2532    2552    2512    3739
CTETRA     12173       1    3973    3622    3522    4295
CTETRA     12174       1    2981    3456    1533    1534
CTETRA     12175       1     859    5100    5099    5122
CTETRA     12176       1    1678    1679    1682    3238
CTETRA     12177       1    1461    1838     806     805
CTETRA     12178       1    1408    1351    1409    1874
CTETRA     12179       1    3201    6567    6643    6568
CTETRA     12180       1    6796    6795    4272    6835
CTETRA     12181       1    4272    3083    2998    4276
CTETRA     12182       1    3974    6576    6575    6651
CTETRA     12183       1    1876    2934    3975    2935
CTETRA     12184       1    5537     172     163     918
CTETRA     12185       1    2105    4264    6850    4256
CTETRA     12186       1    3384    6746    6671    6670
CTETRA     12187       1    2843    4697    4696    4711
CTETRA     12188       1    1846    1875    1874    1876
CTETRA     12189       1    6804    4259    6826    6827
CTETRA     12190       1    1110    1446    1556    3234
CTETRA     12191       1    2387    2906    6614    3471
CTETRA     12192       1      76    4260    4261    4253
CTETRA     12193       1    2115    3136    2117    3231
CTETRA     12194       1    3689    2935    1875    1876
CTETRA     12195       1    2906    2381    6688    3471
CTETRA     12196       1    6789    4967    6859    6860
CTETRA     12197       1    2269    2306    2307    4922
CTETRA     12198       1    2000    6718    6794    6719
CTETRA     12199       1    2000    6720    6719    6795
CTETRA     12200       1    3872    6842    6841    4234
CTETRA     12201       1    1351    2268    1982    1841
CTETRA     12202       1    2247    1669    2931     771
CTETRA     12203       1    1298    1062    1041     559
CTETRA     12204       1    6811    6819    6820    4240
CTETRA     12205       1    2985    6838    6916    6815
CTETRA     12206       1    3882    5162    5163    5172
CTETRA     12207       1    2991    4241    4239    4240
CTETRA     12208       1    3268    5268    5219    5267
CTETRA     12209       1    2991    4241    4236    4239
CTETRA     12210       1    2347    6840    5172    5163
CTETRA     12211       1    2346    6841    4233    4234
CTETRA     12212       1    2347    6840    6841    5172
CTETRA     12213       1    2991    4236    4234    4239
CTETRA     12214       1    1163    4340    4353    4341
CTETRA     12215       1    5860    2566    2173    5785
CTETRA     12216       1    2247     920    1724     870
CTETRA     12217       1    2906    2380    2381     377
CTETRA     12218       1    3240    1895    3241    3237
CTETRA     12219       1    2092    4224    4229    4225
CTETRA     12220       1    2483    2480    2568    2080
CTETRA     12221       1     928    4237    4236    4241
CTETRA     12222       1    6813    4231    6814    6817
CTETRA     12223       1    1856    2965    2968    1277
CTETRA     12224       1    4237    6810    6809    6821
CTETRA     12225       1    2280    4236    4228    4234
CTETRA     12226       1     100    6739    6663    3883
CTETRA     12227       1    4231    6813    2345    4232
CTETRA     12228       1    2360    2906    2387    3471
CTETRA     12229       1    2823    3425    2881    3732
CTETRA     12230       1    3099    1060    1061    3101
CTETRA     12231       1    2483    2456    2568    1277
CTETRA     12232       1    3467    4935    4938    4937
CTETRA     12233       1    6796    6797    6834    4276
CTETRA     12234       1    1274    1182    1193    1273
CTETRA     12235       1    2880    6797    6796    4276
CTETRA     12236       1    2998    6795    4272    6796
CTETRA     12237       1     744    6795    2000    6794
CTETRA     12238       1    6789    4967    6860    4974
CTETRA     12239       1    1738    3553    1750    2317
CTETRA     12240       1     159     240    4942    4947
CTETRA     12241       1    1739    1738    3437    2546
CTETRA     12242       1    3542    3540    2550    3626
CTETRA     12243       1    6916    6815    6838    7065
CTETRA     12244       1    3247    3976    1766    2751
CTETRA     12245       1    1048    3248    2748     897
CTETRA     12246       1    3884    6839    2347    5163
CTETRA     12247       1    3247    3976    2748    3248
CTETRA     12248       1    2747    1048    2748     897
CTETRA     12249       1    3247    1766    1769     692
CTETRA     12250       1    2318    5217    5161    5216
CTETRA     12251       1    2991    6811    3044    4241
CTETRA     12252       1    3247    3482    1748     692
CTETRA     12253       1    3634    6571    6570    6646
CTETRA     12254       1    1391    2560    1112    1111
CTETRA     12255       1    2671    1964    2258    1571
CTETRA     12256       1    6799    6800    6831    4273
CTETRA     12257       1    3029    6800    6724    6799
CTETRA     12258       1    4273    6799    3029    2871
CTETRA     12259       1    2871    6799    6724    6723
CTETRA     12260       1    2857    2671    1836    2856
CTETRA     12261       1    4439    5396    4438    2249
CTETRA     12262       1    3977     952    3978    3285
CTETRA     12263       1     490     670     671     738
CTETRA     12264       1     670    1835    1964    2434
CTETRA     12265       1    3371    6512    6511    6587
CTETRA     12266       1    3599    5164    6844    6845
CTETRA     12267       1    3201    6568    6643    6644
CTETRA     12268       1    2671    2672    2856    2860
CTETRA     12269       1    3101    3099    3076    3745
CTETRA     12270       1    2958    2440    3685    4250
CTETRA     12271       1    1457    6728    6803    6804
CTETRA     12272       1    3133    1858    1852    3452
CTETRA     12273       1    1676     908    1383    1813
CTETRA     12274       1    1227    1601    1230    1955
CTETRA     12275       1    6812    6813    6818    4238
CTETRA     12276       1    6812    6819    6811    4240
CTETRA     12277       1    2129    5267    5273    5274
CTETRA     12278       1    3028    6772    6771    5081
CTETRA     12279       1    1824    1805     956    1216
CTETRA     12280       1    2193     456    2959    2194
CTETRA     12281       1    3435    1413    1803    1216
CTETRA     12282       1    1410    1809    1409    1413
CTETRA     12283       1    1413    1803    1410    1809
CTETRA     12284       1    1412    1413    2268    1808
CTETRA     12285       1    2268    1810    1807    1413
CTETRA     12286       1    6802    6801    4265    6829
CTETRA     12287       1    6802    4260    6803    6828
CTETRA     12288       1    3029    2997    3030    3519
CTETRA     12289       1    2000    6645    6644    6720
CTETRA     12290       1    1457    2799    3979    3980
CTETRA     12291       1      76    2799    4253    4261
CTETRA     12292       1    3753    5151    4883    4884
CTETRA     12293       1    3162    6505    6504    6580
CTETRA     12294       1    4235    4237     826    6809
CTETRA     12295       1    3044    6660    3364    6735
CTETRA     12296       1    3229    4246    4245    4220
CTETRA     12297       1      76    6727    6726    6802
CTETRA     12298       1    2845     909    2855     127
CTETRA     12299       1    6821    4237    4235    6809
CTETRA     12300       1    2749    2752    2750    3912
CTETRA     12301       1    1626    1251    3901    2797
CTETRA     12302       1    3980    3574    3979    2438
CTETRA     12303       1    2750    3683    3912    2752
CTETRA     12304       1    2750     895    3981    3982
CTETRA     12305       1    2750    2748     895     897
CTETRA     12306       1    3748    4244    6847    4247
CTETRA     12307       1    3983    6573    6648    6649
CTETRA     12308       1    3710    4883    4925    4884
CTETRA     12309       1    1457    6728    3979    6803
CTETRA     12310       1    3984    3944    1918    3581
CTETRA     12311       1    1049    5086    5069    5085
CTETRA     12312       1    3029    6726    6725    6801
CTETRA     12313       1    3507    4885    5150    4884
CTETRA     12314       1    3985    3619    4985    4986
CTETRA     12315       1    3223    5072    5073    5076
CTETRA     12316       1    3147    4972    4967    4968
CTETRA     12317       1    3944    3984    3767    3581
CTETRA     12318       1    3426    6546    6471    6470
CTETRA     12319       1    1037    1064    1061    1053
CTETRA     12320       1     785    4698    4708    4702
CTETRA     12321       1    3621    6846    6845    4245
CTETRA     12322       1     826    6807    4227    6808
CTETRA     12323       1      98    6737    6662    6661
CTETRA     12324       1    3944    3945    2781    1902
CTETRA     12325       1    3986    3944    3984    3767
CTETRA     12326       1    2432    4248    4218    2437
CTETRA     12327       1    3599    5175    6844    5164
CTETRA     12328       1    3944    3987    3767    3986
CTETRA     12329       1    6809    6734    6810     928
CTETRA     12330       1    3944    3987    1902    3764
CTETRA     12331       1    3251    3252    1803    3249
CTETRA     12332       1    3251    3242    3429    3250
CTETRA     12333       1    3324    3240    3242    3249
CTETRA     12334       1    3238    2170    1895    3325
CTETRA     12335       1    2797    3882    3872    3874
CTETRA     12336       1    2345    6815    6739    6814
CTETRA     12337       1    2345    6839    4232    2346
CTETRA     12338       1     966    6843    4223    6844
CTETRA     12339       1    3251    3324    3181    1410
CTETRA     12340       1    2144    6806    6825    4222
CTETRA     12341       1    1456    3101    1453    3172
CTETRA     12342       1    1957    2437    2144    2438
CTETRA     12343       1    3181    3324    3249    3240
CTETRA     12344       1    3988    1952     966    2982
CTETRA     12345       1    2980    6657    6733    6658
CTETRA     12346       1     785    4709    4702    4708
CTETRA     12347       1    3181    1410    3324    1895
CTETRA     12348       1    3045    3989    3044      98
CTETRA     12349       1    1410    2170    1874    3324
CTETRA     12350       1    1053    1054    3680    1061
CTETRA     12351       1    1950    2690    1512    1968
CTETRA     12352       1    1641    1778    1621    1633
CTETRA     12353       1    1436    2365    2383    1435
CTETRA     12354       1    2986    5175    5169    6843
CTETRA     12355       1    2280    2982     966    4228
CTETRA     12356       1    1329    2623    2527    2507
CTETRA     12357       1    3044    6810    4241    6811
CTETRA     12358       1    2373    6495    3990    6420
CTETRA     12359       1    1762    1330    2690    1511
CTETRA     12360       1    2990    2987    2664    2535
CTETRA     12361       1    2999    2002    4251    6849
CTETRA     12362       1    1848    3226    1327    3195
CTETRA     12363       1    6807    6808    6823    4227
CTETRA     12364       1     928    4241    6810    4237
CTETRA     12365       1    1202    2379    2390     828
CTETRA     12366       1    3749    4247    6847    6846
CTETRA     12367       1    3985    4884    4986    4885
CTETRA     12368       1    2772     826    4227    4226
CTETRA     12369       1    3044    6735    6811    6736
CTETRA     12370       1     732    1740    1286    1287
CTETRA     12371       1    1295    1498     466    1015
CTETRA     12372       1     427    1380    1558    1071
CTETRA     12373       1    1310    4707    4704    4703
CTETRA     12374       1    2663    3487    2660    2489
CTETRA     12375       1    2055    1700    2489    2488
CTETRA     12376       1    3991    3978    5396    2249
CTETRA     12377       1    1457    4259    6804    4252
CTETRA     12378       1     775    2229    2231     777
CTETRA     12379       1    1020    2012    1071    2502
CTETRA     12380       1    6805    6804    2144    6826
CTETRA     12381       1    1953    3621    3180    3420
CTETRA     12382       1    1457    2437    4258    2958
CTETRA     12383       1    1356    1016    1014    3723
CTETRA     12384       1    2946    6710    6786    6711
CTETRA     12385       1    2946    6786    6785    4983
CTETRA     12386       1    2126    4298    4745    4760
CTETRA     12387       1     290     292     591     589
CTETRA     12388       1    1015    1356    1016    1014
CTETRA     12389       1    2645    1227    2650    2649
CTETRA     12390       1    2653    1992    3992    3465
CTETRA     12391       1    1061    3745    3101    3172
CTETRA     12392       1    6806    6807    6824    4222
CTETRA     12393       1    6726    3993    3974    6651
CTETRA     12394       1    2772    2144    6806    1957
CTETRA     12395       1    6784    6785    6864    4979
CTETRA     12396       1    2772    6731    6806    6807
CTETRA     12397       1    1957    2144    6805    2438
CTETRA     12398       1    2438    6730    6729    6805
CTETRA     12399       1    2946    4981    6786    4983
CTETRA     12400       1    3397    1992    3871    3992
CTETRA     12401       1    3994    4924    4925    4932
CTETRA     12402       1     877    1226    1706     880
CTETRA     12403       1    3995    1755    3996    1759
CTETRA     12404       1    2880    6722    6721    6797
CTETRA     12405       1     744    2998    6795    4272
CTETRA     12406       1    3619    4986    4984    4985
CTETRA     12407       1     744    2998    2000    6795
CTETRA     12408       1     135    4957    2050    4946
CTETRA     12409       1    2645    2618    2791    2650
CTETRA     12410       1    2880    6646    6721    6722
CTETRA     12411       1    4983    4982    4978    3150
CTETRA     12412       1    3992    1609     303    2653
CTETRA     12413       1    2946    6786    6787    6711
CTETRA     12414       1     456    2195    4264    6851
CTETRA     12415       1    2971    5297    5298    5288
CTETRA     12416       1     966    4224    3180    4221
CTETRA     12417       1    2066    6648    6647    6723
CTETRA     12418       1     879    1992     880    1994
CTETRA     12419       1    3630    6742    6743    6667
CTETRA     12420       1    6741    6908    5274    6907
CTETRA     12421       1     880    3465     878    1994
CTETRA     12422       1     877    1120     878     880
CTETRA     12423       1    3465    1120    2654     880
CTETRA     12424       1    2756     814    3738    3551
CTETRA     12425       1    1480    2697    2820    1858
CTETRA     12426       1    1703    1910    1375    1479
CTETRA     12427       1    3873    3613    6590     100
CTETRA     12428       1    1480    1430    1431    3997
CTETRA     12429       1    2413    5217    5265    5266
CTETRA     12430       1    3998    3811    2985    3268
CTETRA     12431       1    2971    5287    5297    5288
CTETRA     12432       1    1605    6920    6440    6515
CTETRA     12433       1    2820    1481    3680    1054
CTETRA     12434       1    2069    5201    5198    5199
CTETRA     12435       1    2823    3421    3732    3423
CTETRA     12436       1    3596    2401    3916    1684
CTETRA     12437       1    3029    6724    6800    6725
CTETRA     12438       1     314     312     313    3282
CTETRA     12439       1    3999    5974    6049    6050
CTETRA     12440       1    2871    4279    2890    4274
CTETRA     12441       1    2890     456    2997    4268
CTETRA     12442       1    3424    3437    2884    1134
CTETRA     12443       1    3671    3657    2575    6581
CTETRA     12444       1     510    1739    1134    1133
CTETRA     12445       1    6745    5302    5304    6904
CTETRA     12446       1    1696    1750    2546    2545
CTETRA     12447       1     914     251    2264    1780
CTETRA     12448       1     679    2263    1696    1749
CTETRA     12449       1    2756    3738    2155    2977
CTETRA     12450       1    2577    6427    6426    6502
CTETRA     12451       1    1678    1697    1681    1680
CTETRA     12452       1    3045    6737    6736    6812
CTETRA     12453       1    1520    1812    3071    1885
CTETRA     12454       1    2254    5171    5176    5160
CTETRA     12455       1    1251    2798    1253    2715
CTETRA     12456       1    1419     708    1507    2444
CTETRA     12457       1    2114     934    3974    3519
CTETRA     12458       1    2328    1231    1962    1385
CTETRA     12459       1    1250    1253    1648    2715
CTETRA     12460       1    1648    1253    1640    2715
CTETRA     12461       1    1253    1619    1626    1604
CTETRA     12462       1    3979    6727    6803    6728
CTETRA     12463       1    2764    3658    3657    3671
CTETRA     12464       1    1457    2437    4259    4258
CTETRA     12465       1    3974    3983    6650    6575
CTETRA     12466       1    3791    3685    2440    3686
CTETRA     12467       1    3309    3962    3136    2116
CTETRA     12468       1    3671    1957    6655    2575
CTETRA     12469       1    1642    2333    1604    1253
CTETRA     12470       1    2116    6498    6573    6574
CTETRA     12471       1    4906     929    5117    5090
CTETRA     12472       1    3779    3372    5270    5271
CTETRA     12473       1    2823    3732    2984    3425
CTETRA     12474       1     431    1335    2479    1223
CTETRA     12475       1    2265    6278    6277    6353
CTETRA     12476       1    2767    2317    2766    2955
CTETRA     12477       1    2316    2767    2717    2768
CTETRA     12478       1    1457    4253      76    2799
CTETRA     12479       1    2911    5185    5179    6846
CTETRA     12480       1    4695    3522    4296    4297
CTETRA     12481       1    5457    7020    4707    7019
CTETRA     12482       1    2767    2984    3484    2981
CTETRA     12483       1    2981    1533    1525    1521
CTETRA     12484       1    2455    6191    6266    6267
CTETRA     12485       1    4000    1957    2437    1956
CTETRA     12486       1    4001    2252     534     612
CTETRA     12487       1    2981    2718    3456    2767
CTETRA     12488       1    2981    2984    3484    1534
CTETRA     12489       1    2912    5200    5201    5185
CTETRA     12490       1    2718    2969    2007    2500
CTETRA     12491       1     929    5090    1050     939
CTETRA     12492       1    3978    4438    3285    4280
CTETRA     12493       1     929     939     940    5117
CTETRA     12494       1    3052    6594    6670    6595
CTETRA     12495       1    1574    2973    2976    3361
CTETRA     12496       1    1568    2560    1111    1567
CTETRA     12497       1     929    5003     931    4905
CTETRA     12498       1    2980    6733    6808    6809
CTETRA     12499       1    3929    4002    3392    5165
CTETRA     12500       1    4002    5165    5164    5180
CTETRA     12501       1     598    5248    5243    5247
CTETRA     12502       1    2974    2973    4003    1880
CTETRA     12503       1    1844    2973    3209    1845
CTETRA     12504       1     826    6809    2980    6808
CTETRA     12505       1     601     871     872     837
CTETRA     12506       1    2980    6809    6734    6733
CTETRA     12507       1    5457    7020    4704    4707
CTETRA     12508       1     944    5004     931     929
CTETRA     12509       1    3506    1378    1829    1830
CTETRA     12510       1    3071    1885     498    1520
CTETRA     12511       1    2822    4710    4696    4293
CTETRA     12512       1    3044     928    6810    6735
CTETRA     12513       1    4002    5180    5164    5179
CTETRA     12514       1    3071    3178    1646    3535
CTETRA     12515       1    3071    3178    3535    1826
CTETRA     12516       1    6735     928    6810    6734
CTETRA     12517       1    1957    1959    3671    3658
CTETRA     12518       1    3071    1825    1826    3328
CTETRA     12519       1    1829    1812    3071    1825
CTETRA     12520       1    1680    3236    2492    4004
CTETRA     12521       1    1989    1990    2254    5171
CTETRA     12522       1    1990    5170    5177    5171
CTETRA     12523       1    3634    6646    6570    6645
CTETRA     12524       1    3086    3078    2493    1822
CTETRA     12525       1    3978    4280     952    5395
CTETRA     12526       1     942     948     931     959
CTETRA     12527       1    2492    2493    1820    2525
CTETRA     12528       1    4727    1176    4724    2421
CTETRA     12529       1     762    3181    1803    1806
CTETRA     12530       1    4005     134    6641     658
CTETRA     12531       1    3181    3249    3243    3240
CTETRA     12532       1    3181    3078    2492    3240
CTETRA     12533       1    2492    3078    3237    3240
CTETRA     12534       1    3974    6575    6650    6651
CTETRA     12535       1    3364    3332    6658    6659
CTETRA     12536       1    1774    1379    3509    1377
CTETRA     12537       1    6805    1957    6730    6806
CTETRA     12538       1     951    4676    1176    5393
CTETRA     12539       1    1771    1770    1587    1785
CTETRA     12540       1    3143    4694    4743    4744
CTETRA     12541       1    1475    6528    6529    6453
CTETRA     12542       1    3533    1774     629    1088
CTETRA     12543       1    1771    1785    1786    1782
CTETRA     12544       1    1924    1124    1590    1688
CTETRA     12545       1    3309    6572    6647    6648
CTETRA     12546       1    4006    2636    3038    3637
CTETRA     12547       1    3983    6650    6574    6649
CTETRA     12548       1    2880    6646    6722    6647
CTETRA     12549       1     477    4923    4924    4933
CTETRA     12550       1    1561    4928     242    1562
CTETRA     12551       1    2000    6719    6643    6718
CTETRA     12552       1    3693     478    3994    4932
CTETRA     12553       1    2490    6567    6568    6492
CTETRA     12554       1    2117    3231    6498    6423
CTETRA     12555       1    4006    1644    4007    3091
CTETRA     12556       1    2873    1718    1773    2876
CTETRA     12557       1     517     327     763     522
CTETRA     12558       1    1588    1590    1785    1924
CTETRA     12559       1    2980    6732    6808    6733
CTETRA     12560       1    2772    6732    6731    6807
CTETRA     12561       1    2117    6499    6574    6575
CTETRA     12562       1    3245    3394    2636    4006
CTETRA     12563       1    2772    2092     826    4226
CTETRA     12564       1    1799    1829    1798    1885
CTETRA     12565       1    1366    4702    4709    4703
CTETRA     12566       1    3846    3792    5177    5166
CTETRA     12567       1    3077    4247    3420    4246
CTETRA     12568       1    2918    3364    3044    4008
CTETRA     12569       1     872    1323    2282    1322
CTETRA     12570       1    1789    2948    3061    2809
CTETRA     12571       1    1799    1829    1378    1798
CTETRA     12572       1    3254    5144    5147    5143
CTETRA     12573       1    6730    1957    6731    6806
CTETRA     12574       1    2958    2799    4254    4253
CTETRA     12575       1    2925    6529    6530    6454
CTETRA     12576       1    2146    5185    5201    5186
CTETRA     12577       1    6802      76    6727    6803
CTETRA     12578       1    6727    3954    3979    3993
CTETRA     12579       1     951    5393    1176    5468
CTETRA     12580       1    1457    4252    6804    6803
CTETRA     12581       1    2124    4695    4745    4297
CTETRA     12582       1    1734    2516    1732    2614
CTETRA     12583       1    1736    1701    2145    3205
CTETRA     12584       1    3026    2641    3121    2614
CTETRA     12585       1    3364    6660    3332    6659
CTETRA     12586       1    4002    5175    5164    5165
CTETRA     12587       1    1736    1107    1734    2641
CTETRA     12588       1    3846    5175    5165    5178
CTETRA     12589       1    2131    5265    5272    5266
CTETRA     12590       1    4009    3868    3869    3330
CTETRA     12591       1    4006    3091    4007    1301
CTETRA     12592       1    3026    3023    2639    3025
CTETRA     12593       1    2726    4618    4298    4299
CTETRA     12594       1    1104     996     248     521
CTETRA     12595       1    3574    6577    6652    6653
CTETRA     12596       1    3046    3053    2719    3025
CTETRA     12597       1     746    4759    4744    4758
CTETRA     12598       1    3801    2636    3394    3637
CTETRA     12599       1    3245    4006    1644    3257
CTETRA     12600       1    1701    3398    1737    1698
CTETRA     12601       1    3811    6741    6917    6916
CTETRA     12602       1    2985    6917    6740    6916
CTETRA     12603       1    2129    5273    5267    5266
CTETRA     12604       1    3613    6918    6665    6917
CTETRA     12605       1    4006    4007    3257    3394
CTETRA     12606       1    2229    2231    3684    3067
CTETRA     12607       1    2318    5160    5216    5161
CTETRA     12608       1    3767    6056    6132    3986
CTETRA     12609       1     777     663    1737    3588
CTETRA     12610       1    6919    3613    6918    6590
CTETRA     12611       1    3911    3013    3211    3012
CTETRA     12612       1    3392    5181    5180    5187
CTETRA     12613       1    1737    3588     663    3961
CTETRA     12614       1    1393    1970    1406     690
CTETRA     12615       1     689    1617    1420    1970
CTETRA     12616       1    1918    1420    1421    1780
CTETRA     12617       1    1393    1905    1395    1407
CTETRA     12618       1    6649    6648    3983    6724
CTETRA     12619       1    2509    2582    2115    2552
CTETRA     12620       1    1393     690    1394    1396
CTETRA     12621       1    3309    6571    6646    6647
CTETRA     12622       1     690     691    1396    1393
CTETRA     12623       1    2105    6850    2195    3134
CTETRA     12624       1     281    1485     958    1942
CTETRA     12625       1     896    2724    3248     895
CTETRA     12626       1    1660     788    1359     843
CTETRA     12627       1      98    6662    6738    6663
CTETRA     12628       1    3371    6663      99    6588
CTETRA     12629       1    3622    4296    4295    4699
CTETRA     12630       1    1310    4705    4691    4703
CTETRA     12631       1    1240    3805    2724    3936
CTETRA     12632       1    2255    3792    3839    5167
CTETRA     12633       1    1965    3814    3929    3935
CTETRA     12634       1    3575    6578    6502    6577
CTETRA     12635       1    6534     541    1502    6535
CTETRA     12636       1    5111    5091    2234    2154
CTETRA     12637       1     504     266     501    1045
CTETRA     12638       1     894     893    1096    1092
CTETRA     12639       1    1204    1776    1689     583
CTETRA     12640       1     884     887     894     895
CTETRA     12641       1     896    2724    1047    3248
CTETRA     12642       1     934    6500    6575    6576
CTETRA     12643       1    1176    5467    3314    5468
CTETRA     12644       1    3954    6651    6727    6652
CTETRA     12645       1    2438    6730    6654    6729
CTETRA     12646       1    3979    6652    6728    6653
CTETRA     12647       1    3996    1176    3111    2421
CTETRA     12648       1    5165    3846    5166    3283
CTETRA     12649       1    4010    6282    6357    6358
CTETRA     12650       1    3831    4011    3677    4012
CTETRA     12651       1    2294    1575    1066    2295
CTETRA     12652       1    3622    4695    3143    2124
CTETRA     12653       1    1003    1051     379    1004
CTETRA     12654       1    3575    6577    6501    6576
CTETRA     12655       1    4006    1644    3257    4007
CTETRA     12656       1    3392    5187    5180    5186
CTETRA     12657       1    6683    2197    6608     540
CTETRA     12658       1    1416    1003     768    1067
CTETRA     12659       1    1953    3229    3420    3180
CTETRA     12660       1    6657    3658    6732    6656
CTETRA     12661       1    2363    5045    2004     812
CTETRA     12662       1     769    1080    1414    1067
CTETRA     12663       1    1176    1585    3314    5467
CTETRA     12664       1     745    4759    4771    4772
CTETRA     12665       1    1051    1068    1078    1052
CTETRA     12666       1      75    6612    6613    6537
CTETRA     12667       1     478     477    3994    4924
CTETRA     12668       1      83    1371     797      79
CTETRA     12669       1     885     894     756    1365
CTETRA     12670       1     240    4948    4942    4947
CTETRA     12671       1    3200    6570    6569    6645
CTETRA     12672       1    2756    1649     814     815
CTETRA     12673       1     814    2756     815    3551
CTETRA     12674       1     132     135    2050     159
CTETRA     12675       1    3932    2542    4013     752
CTETRA     12676       1    5012    5007    2239    2241
CTETRA     12677       1    4915    5007    2239    5012
CTETRA     12678       1    2944    5198    5206    5202
CTETRA     12679       1    1880    2976    2973    4003
CTETRA     12680       1    3409    6927    5990    6926
CTETRA     12681       1    1877    1876    2974    1679
CTETRA     12682       1    1310    4703    4704    4705
CTETRA     12683       1    6661    4008    3869    6586
CTETRA     12684       1    4006    3636    3394    3637
CTETRA     12685       1    3371    6586    4008    6587
CTETRA     12686       1    6778    6871    5018    6870
CTETRA     12687       1    2268    1776    1841    1351
CTETRA     12688       1    3061    1666    2569    4014
CTETRA     12689       1    3061    3060    1789    2809
CTETRA     12690       1    1664    1667    3060    1666
CTETRA     12691       1    5458    7020    7021    4704
CTETRA     12692       1    2255    5176    5171    5177
CTETRA     12693       1    3846    5178    5166    5177
CTETRA     12694       1    2787    2778     412    4015
CTETRA     12695       1     983    2524    1665     985
CTETRA     12696       1    4008    6587    6586    6662
CTETRA     12697       1    3402     985    1322     832
CTETRA     12698       1    6806    2144    6805    1957
CTETRA     12699       1    2776    2344     100    3883
CTETRA     12700       1     837     985     836     832
CTETRA     12701       1    3364    6659    6735    6660
CTETRA     12702       1    6734    6658    3364    2980
CTETRA     12703       1     985    1322     832     837
CTETRA     12704       1    3105    6227    2655    1488
CTETRA     12705       1    2920    1958    2980    3364
CTETRA     12706       1    2280    3988    2281     966
CTETRA     12707       1    2700    4784    4774    4761
CTETRA     12708       1    1136    1135    1739    2530
CTETRA     12709       1    2399    1955    2402    1230
CTETRA     12710       1    1183    1193    1182    1273
CTETRA     12711       1     752    4013    5429    2542
CTETRA     12712       1    3059    6268    2243    2244
CTETRA     12713       1    2542     752    4534    5429
CTETRA     12714       1    4986    3985    4885    4985
CTETRA     12715       1    2956    3349    3351    3553
CTETRA     12716       1    4016    3534    3508    3511
CTETRA     12717       1    1132    1526    1834    2531
CTETRA     12718       1    4017    6571    6496    6495
CTETRA     12719       1    4984    3950    4923    4924
CTETRA     12720       1    3201    6568    6644    6569
CTETRA     12721       1     126     393      55     392
CTETRA     12722       1    2883    2882    1928    2884
CTETRA     12723       1    1693    2545    2544    3540
CTETRA     12724       1    3753    5146    2068     917
CTETRA     12725       1    2826    2825    2827    3528
CTETRA     12726       1    3297    2391    1154    1153
CTETRA     12727       1     587     252    1485     281
CTETRA     12728       1    2082    4299    4773    4300
CTETRA     12729       1    1935    1154    2391    1934
CTETRA     12730       1    3794    3623    5966    5891
CTETRA     12731       1    5966    5891    5967    3794
CTETRA     12732       1    4018    3168    6163    4019
CTETRA     12733       1    3907     791    3794    3855
CTETRA     12734       1    2192    3923    1153    3907
CTETRA     12735       1    1310    4706    4705    4704
CTETRA     12736       1    3533    1377    3509    3508
CTETRA     12737       1    3907    2192    3855    1153
CTETRA     12738       1    2192    3387    5892    3907
CTETRA     12739       1    2920    2982     826    2092
CTETRA     12740       1     892    4743    4757    4758
CTETRA     12741       1     631     629     630    3508
CTETRA     12742       1    3876    3134    3473    3468
CTETRA     12743       1    3723    2661    3835    2662
CTETRA     12744       1    3488    3379    2487    3834
CTETRA     12745       1     917    5145    5200    5146
CTETRA     12746       1    1290    1288    3558     529
CTETRA     12747       1      98    6738    3045    3883
CTETRA     12748       1     374    6618    6617    6693
CTETRA     12749       1     829    1288    2992    2994
CTETRA     12750       1    1289    3558    1296    1288
CTETRA     12751       1    1290    2661    3487    3557
CTETRA     12752       1    3309    6571    6647    6572
CTETRA     12753       1    2490    6492    6568    6493
CTETRA     12754       1    3527    4760    4299    4298
CTETRA     12755       1    3495    4886    3254    4885
CTETRA     12756       1    2491    6570    6494    6569
CTETRA     12757       1    2027    2968    3057    1563
CTETRA     12758       1    3893    2108    3352    5517
CTETRA     12759       1    4017    6496    6571    6572
CTETRA     12760       1    3068    1426    1427    1428
CTETRA     12761       1    4017    6495    6570    6571
CTETRA     12762       1     557    1707     564     563
CTETRA     12763       1    2029    2091    3759     947
CTETRA     12764       1    2487    2896     656    3379
CTETRA     12765       1    2054    2231    2896    3379
CTETRA     12766       1    1436    1437    2383    1927
CTETRA     12767       1    2181    6701    6626    6625
CTETRA     12768       1    1672    1740    2663    1925
CTETRA     12769       1    3076    2899    6399    6398
CTETRA     12770       1    2488    1438    1437    1435
CTETRA     12771       1    2055    2335    1435    2488
CTETRA     12772       1    2923    2311    2403    2310
CTETRA     12773       1    2705    2923    3699    2310
CTETRA     12774       1    2310    2923    3699    2403
CTETRA     12775       1    3600    5189    5188    5203
CTETRA     12776       1    6658    3658    2980    6657
CTETRA     12777       1    3142    6699    6700    6624
CTETRA     12778       1    3869    6510    6585    6586
CTETRA     12779       1    4000    3748    3685    3686
CTETRA     12780       1    1957    6731    6655    6730
CTETRA     12781       1    3196     133    2000    3201
CTETRA     12782       1    3573    6579    6654    6655
CTETRA     12783       1    3749    2912    5185    6847
CTETRA     12784       1    3141    6698    6699    6623
CTETRA     12785       1     928    6734    2980    6809
CTETRA     12786       1    2900    6549    6474    6473
CTETRA     12787       1    2705    2501    1920    1921
CTETRA     12788       1    2923    2311    3259    2403
CTETRA     12789       1    2923    2311    3007    3259
CTETRA     12790       1    2645    2647    2791    3461
CTETRA     12791       1    2438    6655    6654    6730
CTETRA     12792       1    6656    1957    6731    6655
CTETRA     12793       1    2645    2654    2647    3461
CTETRA     12794       1    2341    1914     405    1912
CTETRA     12795       1    3893    2108    5517    5592
CTETRA     12796       1    3534    3517    3511    4016
CTETRA     12797       1       5    6637    3171    6712
CTETRA     12798       1    4020    6280    6356    6281
CTETRA     12799       1    3671    6580    6655    6656
CTETRA     12800       1    3517    3511    4016    3512
CTETRA     12801       1    3517    2362    3512    2824
CTETRA     12802       1    2645    2618    1227    2266
CTETRA     12803       1    1589    3517    1782    2590
CTETRA     12804       1    1660    2414    1914    3481
CTETRA     12805       1    3368    4663    3074    4664
CTETRA     12806       1    3392    5186    3280    5187
CTETRA     12807       1    3846    5166    3283    3792
CTETRA     12808       1     406    4740    4690    4739
CTETRA     12809       1    3283    5166    5165    5181
CTETRA     12810       1    2586    3012    2588    4021
CTETRA     12811       1    2131    5266    5272    5273
CTETRA     12812       1    1417     706    1597    2715
CTETRA     12813       1    1369    2413    2318    2320
CTETRA     12814       1     708     709    2798    2916
CTETRA     12815       1     708    2798     709     707
CTETRA     12816       1    4022    4016    3040     541
CTETRA     12817       1    1511     958    2565    2288
CTETRA     12818       1    2256    5159    5160    5176
CTETRA     12819       1    3839    5167    5168    5176
CTETRA     12820       1    1778    6290    1767    6289
CTETRA     12821       1    2319    5159    5215    5160
CTETRA     12822       1    3055    1369    2321    2320
CTETRA     12823       1    4023    6430    3162    4024
CTETRA     12824       1     708    2917    2774    3868
CTETRA     12825       1    4022    4016     541     631
CTETRA     12826       1     100    6588    6664    6589
CTETRA     12827       1     708    2786    3868    2774
CTETRA     12828       1      98    6587    6662    6663
CTETRA     12829       1    1851    2937     589    1677
CTETRA     12830       1     997     848    2495    1318
CTETRA     12831       1    3983    6574    6650    6575
CTETRA     12832       1    1003      80    1007      85
CTETRA     12833       1    6499    6498    2117    6574
CTETRA     12834       1       7    6713    6714    6638
CTETRA     12835       1    3134    6850    3473    5152
CTETRA     12836       1    3983    6574    6573    6649
CTETRA     12837       1    2117    6575    2114     934
CTETRA     12838       1       5    6712    6713    6637
CTETRA     12839       1    2108    5443    3352    5518
CTETRA     12840       1    1677    1793    1850    2134
CTETRA     12841       1    2760    2603    2602    3618
CTETRA     12842       1      99    6663     100    6588
CTETRA     12843       1    3966    4746    4765    4763
CTETRA     12844       1     508    4757    4769    4768
CTETRA     12845       1    3846    2255    5177    3792
CTETRA     12846       1    2806    2146    2911    2912
CTETRA     12847       1    1621    6440    6439    6515
CTETRA     12848       1    3283    5181    5182    5166
CTETRA     12849       1    2806    2146    2912    2069
CTETRA     12850       1    2603    2602    3618    4025
CTETRA     12851       1    6590    3613    6918    6665
CTETRA     12852       1    3432    3600    3283    3280
CTETRA     12853       1    2603    3529    2766    3553
CTETRA     12854       1    3571    3726    3725    2953
CTETRA     12855       1    2603    3554    3747    4025
CTETRA     12856       1    4022    3510     630    1502
CTETRA     12857       1    4022    3513    3511    3510
CTETRA     12858       1    3508    4022     630     631
CTETRA     12859       1    1848    2808    1449     169
CTETRA     12860       1    2603    3747    1903    2602
CTETRA     12861       1    3573    6578    6654    6579
CTETRA     12862       1    1903    3553    1750    3552
CTETRA     12863       1    3669    1637    3041    2419
CTETRA     12864       1    3062       6    4969    2953
CTETRA     12865       1    3256    3924    6275    6350
CTETRA     12866       1       8    6789    6714    6713
CTETRA     12867       1    3147    4026     134    2050
CTETRA     12868       1    2782    1905    1918    2898
CTETRA     12869       1       8    6788    6789    6713
CTETRA     12870       1    1970    1420    1905    1617
CTETRA     12871       1    1912    1970    1914    1407
CTETRA     12872       1    1905    1395    1407    1907
CTETRA     12873       1    1905    1395    1906    1909
CTETRA     12874       1    2803    1918    1906    1909
CTETRA     12875       1    4027    5972    6047    6048
CTETRA     12876       1    4967    6859    3147    6789
CTETRA     12877       1    2691    2565    2743    1981
CTETRA     12878       1    1905    1906    1907    2891
CTETRA     12879       1    2562    6426    6425    6501
CTETRA     12880       1    1131    2502    1000    1014
CTETRA     12881       1       8    6788    4974    6789
CTETRA     12882       1    1251     707    2715     705
CTETRA     12883       1     903     560    2013     875
CTETRA     12884       1    3954    6577    6576    6652
CTETRA     12885       1    3574    6577    6653    6578
CTETRA     12886       1    3352    2108    5518    5517
CTETRA     12887       1    3352    4653    2022    1116
CTETRA     12888       1    4661    5444    5443    2022
CTETRA     12889       1     990     974     992    2502
CTETRA     12890       1    4028    4029    6358    6359
CTETRA     12891       1     134    6790    6791    6715
CTETRA     12892       1    6790    2050    6791    4973
CTETRA     12893       1    3147    6714    6790    6715
CTETRA     12894       1    3255    4782    4779    4781
CTETRA     12895       1    2008    4623    4624    4617
CTETRA     12896       1    5453    7016    4292    7015
CTETRA     12897       1     160       6    4971    4972
CTETRA     12898       1    1736    1107    2641    1160
CTETRA     12899       1     385    1062     425    1041
CTETRA     12900       1    1701    1737    2771    3205
CTETRA     12901       1    3258    3400    4030    2095
CTETRA     12902       1     661     865     643     769
CTETRA     12903       1    1736    2641    2640    1160
CTETRA     12904       1    1299     866    1123    1798
CTETRA     12905       1    1632    1788    6923    6216
CTETRA     12906       1    3332    6584    6660    6585
CTETRA     12907       1    6918    3613    6919    3865
CTETRA     12908       1    3599    6845    3621    5164
CTETRA     12909       1    4031    2986    3599    4002
CTETRA     12910       1    4002    5180    3392    5165
CTETRA     12911       1    3713    3382    3777    3778
CTETRA     12912       1    1125     512    2933    2932
CTETRA     12913       1     187    1530    3893    1509
CTETRA     12914       1     403    4776    4783    4771
CTETRA     12915       1     513     512    3917    2887
CTETRA     12916       1     512    2584    4032    4033
CTETRA     12917       1    4034    2879    5848    5923
CTETRA     12918       1     512    2584    4033    2932
CTETRA     12919       1    4035    4029    6360    2804
CTETRA     12920       1     563    2933     512    1463
CTETRA     12921       1     406    4691    4705    4690
CTETRA     12922       1     509    4758    4768    4771
CTETRA     12923       1    3283    5188    5182    5181
CTETRA     12924       1    1649     814     815     801
CTETRA     12925       1    3072    1641    1642    1633
CTETRA     12926       1    2155    4036    2754    3738
CTETRA     12927       1    1056    2755    1572    1459
CTETRA     12928       1     600    2368     603    1643
CTETRA     12929       1    1956    4037    2907    1952
CTETRA     12930       1    4028    6509    6434    6433
CTETRA     12931       1    6358    6359    4029    3580
CTETRA     12932       1    3162    6504    6579    6580
CTETRA     12933       1    3052    6594    6593    6669
CTETRA     12934       1    3792    5166    3283    5182
CTETRA     12935       1    3573    6503    6578    6579
CTETRA     12936       1    4015    6362    6361    6437
CTETRA     12937       1    5264    2413    5271    3372
CTETRA     12938       1    2756    1649    2155     814
CTETRA     12939       1     602    1649     603     985
CTETRA     12940       1    2491    6495    6494    6570
CTETRA     12941       1    2413    2318    5264    5216
CTETRA     12942       1    2155    2754    2977    3738
CTETRA     12943       1    3786    6416     645    1283
CTETRA     12944       1    2204    2203    4038    1623
CTETRA     12945       1    2022    5444    5443    2108
CTETRA     12946       1    1624    1623    2204    2016
CTETRA     12947       1    3054    2445    2943    4887
CTETRA     12948       1    1283    6342    6418    6343
CTETRA     12949       1    2373    6419    6494    6495
CTETRA     12950       1    3619    2369    2370    4989
CTETRA     12951       1    1339    2203    1624    1625
CTETRA     12952       1    4039    6293    3013    6292
CTETRA     12953       1    1624    2681    2476    2477
CTETRA     12954       1    2703    2681    2476    1624
CTETRA     12955       1    2413    2320    3372    5264
CTETRA     12956       1    3893     186    3352    2108
CTETRA     12957       1    1339    2472    1624    2558
CTETRA     12958       1    1845    2975    2973    3209
CTETRA     12959       1    4040    4003    3361    2976
CTETRA     12960       1    2159    6491    6416    6415
CTETRA     12961       1    2071    2861    6196    6272
CTETRA     12962       1    4003    3361    2976    2973
CTETRA     12963       1    2491    6494    6493    6569
CTETRA     12964       1    3023    3205    3648    3585
CTETRA     12965       1    3121    3585    3023    3046
CTETRA     12966       1    3026    2641    1894    2639
CTETRA     12967       1    4017    6496    6572    6497
CTETRA     12968       1    3023    3024    3648    2639
CTETRA     12969       1     744    4272    3083    2998
CTETRA     12970       1    6271    6346    6270    2071
CTETRA     12971       1    2308    4987    4990    4991
CTETRA     12972       1    2243    6270    2072    6194
CTETRA     12973       1    2093    4382    1800    5416
CTETRA     12974       1    3023    3024    3025    2869
CTETRA     12975       1    1272    1273    1581    1244
CTETRA     12976       1    3495    4985    4989    4886
CTETRA     12977       1    1146    1157    1184    1212
CTETRA     12978       1    3254    5143    5147    5148
CTETRA     12979       1     697    2638    1168    2388
CTETRA     12980       1    2116    6498    6497    6573
CTETRA     12981       1    2093     979    3323    2818
CTETRA     12982       1     125    2360     378     377
CTETRA     12983       1    4041     859     368     369
CTETRA     12984       1    3619    4989    4985    4988
CTETRA     12985       1    2093    3323    5418    5493
CTETRA     12986       1    2861    6273    6197    6272
CTETRA     12987       1    1812     766    3167     765
CTETRA     12988       1     710    6464    6389    6388
CTETRA     12989       1     812    5045    5044    5094
CTETRA     12990       1    2386    1154    3297    2391
CTETRA     12991       1    1284    1675    1273    1244
CTETRA     12992       1    1244    1779    2133    1581
CTETRA     12993       1    1620    2777     208    1621
CTETRA     12994       1     275     312     314    2732
CTETRA     12995       1     178    2140     275    2732
CTETRA     12996       1    2140    2730    2732     178
CTETRA     12997       1     273     275    1121    1813
CTETRA     12998       1    3033    2042    2039    2093
CTETRA     12999       1    3658    6582    6658    6583
CTETRA     13000       1    3749    5185    2911    6846
CTETRA     13001       1    2578    6503    6427    6502
CTETRA     13002       1    3736    3686    6848    4244
CTETRA     13003       1    4035    4015    2804    6361
CTETRA     13004       1    3496    4035    2804    4029
CTETRA     13005       1    2093    5492    3033    2042
CTETRA     13006       1    1641    1621    1642    1633
CTETRA     13007       1    1976     723    1161    3638
CTETRA     13008       1     684    2778    1641    1777
CTETRA     13009       1    3658    6658    6582    6657
CTETRA     13010       1    1974     866    1299     750
CTETRA     13011       1    3395    6601    6602    6526
CTETRA     13012       1     971    6679    3393    6678
CTETRA     13013       1    3049    1644    3091    5222
CTETRA     13014       1    1975    2273    1976     750
CTETRA     13015       1    1641    2787    2777    2778
CTETRA     13016       1    1975    2278    2273    2276
CTETRA     13017       1    1614    3475    3568    2760
CTETRA     13018       1     419     593     249     215
CTETRA     13019       1     419    3026    3032    3041
CTETRA     13020       1     215     593     249     213
CTETRA     13021       1    1108     247    1629    1635
CTETRA     13022       1    1368    2321    2323    2322
CTETRA     13023       1    2093    3323    5493    5492
CTETRA     13024       1    2323    5158    5159    5168
CTETRA     13025       1    1621    6439    6514    6515
CTETRA     13026       1    3813    3428    5184    5190
CTETRA     13027       1     247    3026    1105     249
CTETRA     13028       1    2256    5176    5168    5159
CTETRA     13029       1    2073    1222    1223    3544
CTETRA     13030       1     764     572     571    2790
CTETRA     13031       1    3873    6515    6514    6590
CTETRA     13032       1    2970    6744    6743    5295
CTETRA     13033       1    1335    1245    2722    1246
CTETRA     13034       1    1725    1314     764    2790
CTETRA     13035       1    2117    6499    6575    6500
CTETRA     13036       1     592    1398     589     590
CTETRA     13037       1    2542    3194    4522    4534
CTETRA     13038       1    3754    3985    4986    3619
CTETRA     13039       1    1311    1894    3410    3411
CTETRA     13040       1    2117    6424    6499    6500
CTETRA     13041       1    3254    5148    5147    4886
CTETRA     13042       1    2117    6423    6498    6499
CTETRA     13043       1    6377    1476    1487    1488
CTETRA     13044       1    4536    4013    5429     752
CTETRA     13045       1    1873    1898    2722    2461
CTETRA     13046       1    1836    1370    1442    1371
CTETRA     13047       1    3671    6581    6580    6656
CTETRA     13048       1    2105    4264    2195    6850
CTETRA     13049       1    3186    2736    3110    3198
CTETRA     13050       1    3983    6649    6725    6650
CTETRA     13051       1    2542    5503    2104    5504
CTETRA     13052       1     592    1851     589    1398
CTETRA     13053       1    1112    2209    1388    2332
CTETRA     13054       1    1389    2208    1388    2209
CTETRA     13055       1    3532    4772    4771    4783
CTETRA     13056       1    1221    1220     590    1444
CTETRA     13057       1    1399    1114    1446    1849
CTETRA     13058       1    2013     874     906     903
CTETRA     13059       1    2942    5202    5206    5203
CTETRA     13060       1    2013     868     869     867
CTETRA     13061       1    2343    4042    3267    4001
CTETRA     13062       1    3556    6707    6708    6632
CTETRA     13063       1    4015    6286     412    2804
CTETRA     13064       1     208    6438    6513    6514
CTETRA     13065       1    6291    3717    6922    1632
CTETRA     13066       1     869    2013     946     903
CTETRA     13067       1    2800    3582    3580    2801
CTETRA     13068       1    3590    2068    3753    3507
CTETRA     13069       1    1297    2670    1414    2673
CTETRA     13070       1     875     560    2358     903
CTETRA     13071       1    6515    1605    6919    3873
CTETRA     13072       1    3330    6435    6510    6511
CTETRA     13073       1    2413    2318    5216    5217
CTETRA     13074       1    3486     418    2470    5208
CTETRA     13075       1    3621    4002    5164    5179
CTETRA     13076       1    3854    3813    5183    3714
CTETRA     13077       1     404    2341    3390    3170
CTETRA     13078       1    3427    4043    1242    3466
CTETRA     13079       1    3854    5189    5182    5188
CTETRA     13080       1    5763    5838    5762    3461
CTETRA     13081       1    3905    3170    1914     405
CTETRA     13082       1    1913    5911    3905     405
CTETRA     13083       1    3905    1914    3906    1917
CTETRA     13084       1    4038    2205    2204    2874
CTETRA     13085       1    3600    5188    5202    5203
CTETRA     13086       1    2791    3906    3905    1914
CTETRA     13087       1    3377    6628    6704    6629
CTETRA     13088       1    3905    5913    3906    5838
CTETRA     13089       1    4024    6431    4010    6356
CTETRA     13090       1     231    3655    3486    4044
CTETRA     13091       1    1613    1601    3474    2901
CTETRA     13092       1    2542    4522     970    4533
CTETRA     13093       1     843    1601    2901    2649
CTETRA     13094       1    1267    2703    2558    2559
CTETRA     13095       1    2309    3750    3751    3752
CTETRA     13096       1    2822    4293    4696    4294
CTETRA     13097       1    3575    6502    6501    6577
CTETRA     13098       1    1141    2559    1538     501
CTETRA     13099       1    3573    3162    6504    6579
CTETRA     13100       1    2117    6423    6499    6424
CTETRA     13101       1    3002    3640    1005    6480
CTETRA     13102       1    1268    2404    3520    3366
CTETRA     13103       1    5004     931     929    5003
CTETRA     13104       1     969    6552    6477    6476
CTETRA     13105       1    2244    6269    6193    6268
CTETRA     13106       1    1602    2310    2399    2403
CTETRA     13107       1    2034    4598    4300    4301
CTETRA     13108       1    2309    3751    3750    2096
CTETRA     13109       1    2310    3474    3751    2309
CTETRA     13110       1    1602    2403    2311    2310
CTETRA     13111       1    1266     400    2699    2706
CTETRA     13112       1     296     400    2699    1266
CTETRA     13113       1    1516    5052    5053    4892
CTETRA     13114       1    2245    1179    5247     598
CTETRA     13115       1    1955    2267    1266     296
CTETRA     13116       1    1365     882     881    1096
CTETRA     13117       1    3575    6502    6578    6503
CTETRA     13118       1    2707    3255    3532    2708
CTETRA     13119       1    2070    2944    5198    2190
CTETRA     13120       1    4010    6357    6356    6432
CTETRA     13121       1    3979    6728    6652    6727
CTETRA     13122       1     540    6760    6684    6759
CTETRA     13123       1    2577    6426    6501    6502
CTETRA     13124       1    3999    5975    5974    6050
CTETRA     13125       1    2542     970    5427    4533
CTETRA     13126       1    6782    6867    4956    4962
CTETRA     13127       1    3760    6559    2283    6558
CTETRA     13128       1    1811    2132    1543    2140
CTETRA     13129       1    1956    4000    4037    3077
CTETRA     13130       1    3639    6630    6631    6555
CTETRA     13131       1    1956    2907    1959    1958
CTETRA     13132       1    2437    1956    2432    4000
CTETRA     13133       1    2325    2717    2324    3761
CTETRA     13134       1    2562    6501    6425    6500
CTETRA     13135       1    3117    4045    1454    6255
CTETRA     13136       1    2096    2759    2309    3469
CTETRA     13137       1    3639    6630    6555    6554
CTETRA     13138       1    4000    2907    1959    1956
CTETRA     13139       1    3730    5746    5670    5745
CTETRA     13140       1    2895    6703    6628    6627
CTETRA     13141       1    2723    4046    2996    2585
CTETRA     13142       1    1067    2287    1066    2295
CTETRA     13143       1    1078    2864    1068     700
CTETRA     13144       1    1051    1054    1004    1052
CTETRA     13145       1     745     509    4771    4758
CTETRA     13146       1    2575    6505    6580    6581
CTETRA     13147       1    3657    6507    6506    6582
CTETRA     13148       1    3657    6506    6581    6582
CTETRA     13149       1    1051    1052    1078    1053
CTETRA     13150       1    1078    2864    1053    1052
CTETRA     13151       1    3933    5504    2542    2104
CTETRA     13152       1    2996    2585    2154    2234
CTETRA     13153       1    3924    6351    6275    6350
CTETRA     13154       1    2479    1101    1223    2433
CTETRA     13155       1    6726    6727    3993    6651
CTETRA     13156       1    6466    6465     723    6541
CTETRA     13157       1    4047    6432    6507    6508
CTETRA     13158       1     723    6541    6542    6466
CTETRA     13159       1    2433    3695      39    1223
CTETRA     13160       1    1234    1224    2433      39
CTETRA     13161       1    1234    2433    1307      39
CTETRA     13162       1    5836    5837    3905    5761
CTETRA     13163       1    1309    2433    3056    1307
CTETRA     13164       1     462     838     839    1231
CTETRA     13165       1    1136    1133    2531    2835
CTETRA     13166       1    1207     963    1451    1183
CTETRA     13167       1    4720    5464    7027    7026
CTETRA     13168       1    1273    2134    3018    2133
CTETRA     13169       1    2527    2529    2507    2624
CTETRA     13170       1    1330    1329    1847    2693
CTETRA     13171       1    1997    5228    1731    4894
CTETRA     13172       1    2946    6710    1205    6785
CTETRA     13173       1    3839    5168    5167    5183
CTETRA     13174       1    3231    3021    6422    6347
CTETRA     13175       1    3495    4887    4886    4989
CTETRA     13176       1    1511    1424    2744    1980
CTETRA     13177       1    1527    1526    1937    1239
CTETRA     13178       1    2946    1205    6710    3171
CTETRA     13179       1    2528    2530    2533    2529
CTETRA     13180       1    1848    3590     169     168
CTETRA     13181       1    6198    6273    6197    2861
CTETRA     13182       1    3136    6421    6497    6422
CTETRA     13183       1    1692    3357    2625    3144
CTETRA     13184       1    2373    6420    6419    6495
CTETRA     13185       1    3225    6269    6345    6270
CTETRA     13186       1    3225    6345    6344    6420
CTETRA     13187       1    2513    2562    3256    6349
CTETRA     13188       1    4993    3603    2370    2719
CTETRA     13189       1    3119     932     770    2014
CTETRA     13190       1    2014    2028     770    1558
CTETRA     13191       1    1873    3941     573    2723
CTETRA     13192       1     770    1558    1669    3148
CTETRA     13193       1    3331    6510    6509    6585
CTETRA     13194       1    3125    3935    3839    1367
CTETRA     13195       1    4035    6361    2804    6360
CTETRA     13196       1    2438    6729    6653    6728
CTETRA     13197       1    3792    3839    5167    3854
CTETRA     13198       1    2946    4981    3062    6787
CTETRA     13199       1     770    2028     772     771
CTETRA     13200       1    3678    2889     574     573
CTETRA     13201       1     770     772    2028     932
CTETRA     13202       1     770     217    3880    3148
CTETRA     13203       1    2724    3248     895    4048
CTETRA     13204       1     361     788     243     364
CTETRA     13205       1    1240    3805    3936    3427
CTETRA     13206       1    2724     895    2812    4048
CTETRA     13207       1    2373    6418    6494    6419
CTETRA     13208       1    2724    2812    1241    1242
CTETRA     13209       1    1240     896    2724    1047
CTETRA     13210       1    2167    3562    2626    3564
CTETRA     13211       1    3563    3564    2167    2518
CTETRA     13212       1    2033    4598    4575    4576
CTETRA     13213       1    2996    2585    2234    4032
CTETRA     13214       1    4049    3107    3564    3563
CTETRA     13215       1    3990    6421    6420    6496
CTETRA     13216       1    2374    2243    3059    6268
CTETRA     13217       1    2946    3062    6712    6787
CTETRA     13218       1    3254    4886    3495    2943
CTETRA     13219       1    3584    6277    2265    6278
CTETRA     13220       1    3107    3564    3563    2518
CTETRA     13221       1    6774    5077    6875    6773
CTETRA     13222       1    3001    6625    6549    6624
CTETRA     13223       1    2943    5149    5148    4887
CTETRA     13224       1    2161    2936    2628    1716
CTETRA     13225       1     529    1943    3615    3487
CTETRA     13226       1    2518    3107    3564    2740
CTETRA     13227       1    2032    4299    4300    4576
CTETRA     13228       1    3136    6423    6422    6498
CTETRA     13229       1    2117    6424    6500    6425
CTETRA     13230       1    2125    4298    4617    4297
CTETRA     13231       1    1995    1059    5369    2537
CTETRA     13232       1    2562    6349    6424    6425
CTETRA     13233       1    3231    6347    6422    6423
CTETRA     13234       1    3013    6293    6294    6218
CTETRA     13235       1    1767    3281     412    6213
CTETRA     13236       1    2444    3496    2758    4035
CTETRA     13237       1    1257     759     757     484
CTETRA     13238       1    3498    3926    3500    2276
CTETRA     13239       1    3600    3174    5203    2942
CTETRA     13240       1    2401    6519    6444    6443
CTETRA     13241       1     811    3498    3652    3926
CTETRA     13242       1    1830     751     718    3500
CTETRA     13243       1     724     766     739     749
CTETRA     13244       1     724     722    1161     723
CTETRA     13245       1    2387    3500     722    1161
CTETRA     13246       1    3500     751     718     724
CTETRA     13247       1    2775    4015    6436    6437
CTETRA     13248       1    2724    1242    3936    2812
CTETRA     13249       1    3498    2387     377    1140
CTETRA     13250       1    1115    1388    1443    2175
CTETRA     13251       1    4047    6507    6583    6508
CTETRA     13252       1    3283    3392    3280    5187
CTETRA     13253       1    1059    1995    5369    1857
CTETRA     13254       1    2575    3135    3162    6505
CTETRA     13255       1    5369    2537    5381    1995
CTETRA     13256       1    3028    6696    6771    6772
CTETRA     13257       1    1389    2331    1881    2209
CTETRA     13258       1    1112    2409    1111    2560
CTETRA     13259       1    6284    2804    6360    4029
CTETRA     13260       1    1112    2331    1389    2209
CTETRA     13261       1    6792    6793    7066    4945
CTETRA     13262       1     670    1571    1802    2257
CTETRA     13263       1     134    6791    6716    6715
CTETRA     13264       1    2355    2434    4050    3550
CTETRA     13265       1    2355    3550    2354    2434
CTETRA     13266       1    2355    4050    2434    2257
CTETRA     13267       1     172    4755    4756    4737
CTETRA     13268       1    2355    1866    4051    2257
CTETRA     13269       1    3774    3054    3041    2943
CTETRA     13270       1     134    6792    6716    6791
CTETRA     13271       1    3902    2194    3492    2452
CTETRA     13272       1    1356    1014    1034    3723
CTETRA     13273       1    2267     296    3871    2699
CTETRA     13274       1    4052    6200    6199    6275
CTETRA     13275       1    3809    4732    3539     741
CTETRA     13276       1    1014    1030    1001    3723
CTETRA     13277       1    4023    6354    6429    6430
CTETRA     13278       1    1013    2502     992    1022
CTETRA     13279       1    2581    4286    4285    4459
CTETRA     13280       1     876     976     874    2031
CTETRA     13281       1     828    1167    2379    2390
CTETRA     13282       1    1285    1294    1295     733
CTETRA     13283       1    2575    6505    6581    6506
CTETRA     13284       1     566    1701    1130    2024
CTETRA     13285       1    5369    1857    5357    1059
CTETRA     13286       1    4024    6430    6505    6506
CTETRA     13287       1    1995    5378    2420    5390
CTETRA     13288       1    1552    2420    5378    5377
CTETRA     13289       1    3924    6276    6351    6352
CTETRA     13290       1    2778    6288    6363    6364
CTETRA     13291       1    3655    2897    5205    3486
CTETRA     13292       1    6537    6536    3040      75
CTETRA     13293       1    1998    1515    1516    5052
CTETRA     13294       1     208    6513    6437    6512
CTETRA     13295       1    3627    6201    6277    6202
CTETRA     13296       1    1772    2453    1784    1787
CTETRA     13297       1    2903    5065    1828    5061
CTETRA     13298       1    1887    5797    5873    5798
CTETRA     13299       1      75    6687    6688    6612
CTETRA     13300       1    3637    2463     550    2453
CTETRA     13301       1     550    2656    2463    3636
CTETRA     13302       1    2876    4053    2873    3919
CTETRA     13303       1    3495    3985    4885    3254
CTETRA     13304       1    5033    2870    5041    2612
CTETRA     13305       1    2032    4299    4576    4618
CTETRA     13306       1    6270    2243    3225    6269
CTETRA     13307       1    2876    3038    3801    3637
CTETRA     13308       1    1304    5053    2427    5051
CTETRA     13309       1     719     765    6239    6314
CTETRA     13310       1    3471    6614    6539    6538
CTETRA     13311       1    4053    3919    2876    3801
CTETRA     13312       1    2876    2453    3038    3637
CTETRA     13313       1    2876    1773    2453     435
CTETRA     13314       1    2077    4775    4767    4766
CTETRA     13315       1    2453    2463    1784    4006
CTETRA     13316       1    2537    5380    1995    5379
CTETRA     13317       1    2811    4292    4564    4563
CTETRA     13318       1     208    6438    6514    6439
CTETRA     13319       1    1642    1633    1621    1605
CTETRA     13320       1     401    4776    4768    4767
CTETRA     13321       1    6210    1396    6211    2804
CTETRA     13322       1    2453    3637    2463    4006
CTETRA     13323       1    3174    5208    5204    5203
CTETRA     13324       1    1395    1394    1407    6061
CTETRA     13325       1    1773    3038    1787    3039
CTETRA     13326       1     208    6513    6438    6437
CTETRA     13327       1    2778    1767    6288    6289
CTETRA     13328       1    4028    6359    6358    6434
CTETRA     13329       1    2057    3197     656     158
CTETRA     13330       1    1552    1059    2420    5373
CTETRA     13331       1    4035    6360    6435    6436
CTETRA     13332       1    6239    6164    6240     765
CTETRA     13333       1    2057    2350    2349    2335
CTETRA     13334       1     711    6389    6390    6314
CTETRA     13335       1    2712    4764    4761    4762
CTETRA     13336       1    2054    2057    2055    2487
CTETRA     13337       1     719    6389    6314    6313
CTETRA     13338       1    2055    2057     656    2487
CTETRA     13339       1    2131    5271    5288    5272
CTETRA     13340       1    2057    3667    2349    3197
CTETRA     13341       1    1407    1907    6061    5986
CTETRA     13342       1    1434    1426    2353    3155
CTETRA     13343       1    3162    6505    6429    6504
CTETRA     13344       1    1435    2349    1434    2352
CTETRA     13345       1    1435    2365    2349    2352
CTETRA     13346       1    2970    6668    3630    6743
CTETRA     13347       1    3779    3372    3782    5270
CTETRA     13348       1    3054    4888    2719    2059
CTETRA     13349       1    1435    2057    2349    2335
CTETRA     13350       1    1847    2862    3195    3791
CTETRA     13351       1    3579    3580    3578    4010
CTETRA     13352       1    3619    3495    4989    2370
CTETRA     13353       1    1905    2891    1918    1906
CTETRA     13354       1    2068    5145    5146    5151
CTETRA     13355       1    1672    1438    1437    2488
CTETRA     13356       1    2562    6426    6350    6425
CTETRA     13357       1     691    2804    1423    3496
CTETRA     13358       1    3590    2808    2988    2987
CTETRA     13359       1    2068    5145    5150    5144
CTETRA     13360       1    1644    2632    5281    5277
CTETRA     13361       1    6381    6456    6380    1550
CTETRA     13362       1    1628    1108    1629    1635
CTETRA     13363       1    1485    1137    2288    1916
CTETRA     13364       1    1661    3127    6448    6523
CTETRA     13365       1    1330    2693    1847    1978
CTETRA     13366       1    2578    6428    6504    6429
CTETRA     13367       1    4275    2890    4268    2959
CTETRA     13368       1    2578    6428    6427    6503
CTETRA     13369       1    2202    4444    4458    4284
CTETRA     13370       1    2944    2942    5202    5206
CTETRA     13371       1    2820    3680    1481    3997
CTETRA     13372       1    3112    6750    6749    5299
CTETRA     13373       1    1511    2690    1512    2761
CTETRA     13374       1    1427    2591    2665    3068
CTETRA     13375       1    5844    4054    4055    5843
CTETRA     13376       1    1654    6522    6523    6447
CTETRA     13377       1    6597    6598    2153    6522
CTETRA     13378       1    3112    6749    6900    5299
CTETRA     13379       1    2417     169    2423    2464
CTETRA     13380       1    2664    2988    1639     169
CTETRA     13381       1    1152    1155    3425    1150
CTETRA     13382       1     359     348    1581    1272
CTETRA     13383       1    1751     925    1531     926
CTETRA     13384       1    3768    6128    6129    6053
CTETRA     13385       1     426    1380    1967    1558
CTETRA     13386       1    3768    6053    6052    6128
CTETRA     13387       1    1967    3119    1969    3880
CTETRA     13388       1    1967    1558     770    3148
CTETRA     13389       1    3522    4624    4296    4297
CTETRA     13390       1    2234    3610    5126    3611
CTETRA     13391       1    3638    6544    6469    6468
CTETRA     13392       1     770    2014     932    2028
CTETRA     13393       1    3135    6432    6431    6507
CTETRA     13394       1     127    5097    5108    5098
CTETRA     13395       1    1923    6547    6546    6622
CTETRA     13396       1    2012     906    2013     874
CTETRA     13397       1    3006    2292    5306    6746
CTETRA     13398       1    3006    5306    2292    5303
CTETRA     13399       1    3371      99    6513    6588
CTETRA     13400       1    3671    6582    6581    6657
CTETRA     13401       1    3067    3066    3155     478
CTETRA     13402       1    1131    1072    1013    1015
CTETRA     13403       1    3119     770    3880    1967
CTETRA     13404       1    3006    3376    3112    3123
CTETRA     13405       1     156      38      37    3695
CTETRA     13406       1    6198    6274    4056    4052
CTETRA     13407       1     932    3119     770    3880
CTETRA     13408       1    2072    6195    6270    6271
CTETRA     13409       1    1282    4057    6340    6265
CTETRA     13410       1    3185    3757    1608    5032
CTETRA     13411       1    2350    3200    2491    3201
CTETRA     13412       1    1705    1431    1704    3940
CTETRA     13413       1     339    3557     341    1578
CTETRA     13414       1    3376    6747    3006    6748
CTETRA     13415       1    1939    2449    2242    2243
CTETRA     13416       1     426    1036    2872    3148
CTETRA     13417       1    3021    6271    6346    6347
CTETRA     13418       1    2370    4989    4993    4887
CTETRA     13419       1    4058    3531    3940    1431
CTETRA     13420       1    2397      49    5048    5059
CTETRA     13421       1    1652    1987    3851    1705
CTETRA     13422       1    3531    3530    3889    3722
CTETRA     13423       1    1445    6488    6563    6564
CTETRA     13424       1    1431    3531    3940    1705
CTETRA     13425       1    2374    6343    6419    6344
CTETRA     13426       1    3006    3123    5300    5301
CTETRA     13427       1    3531    3851    3940    1705
CTETRA     13428       1    3006    3403    5301    5303
CTETRA     13429       1    2466    3965    4599    1686
CTETRA     13430       1    2496    3530    1858    1431
CTETRA     13431       1    3231    6348    6347    6423
CTETRA     13432       1     723    6542    6467    6466
CTETRA     13433       1    1875    3689    3694    2935
CTETRA     13434       1    1876    2975    3689    3975
CTETRA     13435       1    1877    1682    1679    3238
CTETRA     13436       1    2170    2934    1877    1874
CTETRA     13437       1     617    1108    1629     773
CTETRA     13438       1    3449    4059    5021    5022
CTETRA     13439       1    2562    6349    6425    6350
CTETRA     13440       1    2842    4057    6265    6264
CTETRA     13441       1     742    6692     374    6617
CTETRA     13442       1     156     153     230    4044
CTETRA     13443       1    1876    1845    2973    1880
CTETRA     13444       1    1555    3234    1556    3152
CTETRA     13445       1    3655    5204    5192    5190
CTETRA     13446       1    2804    1396    6211     412
CTETRA     13447       1    2706    2077    2701     402
CTETRA     13448       1    1109    1115    1110    1388
CTETRA     13449       1    2331    2332    2209    1112
CTETRA     13450       1    1556    3234    1446    3156
CTETRA     13451       1    3330    6435    6511    6436
CTETRA     13452       1    3331    6435    6434    6510
CTETRA     13453       1     412    2804    6286    6211
CTETRA     13454       1    2778    4015    6363     412
CTETRA     13455       1    3417    4021    6067    6142
CTETRA     13456       1    2426    5051    5050    5063
CTETRA     13457       1    1111    3207    1567    2409
CTETRA     13458       1     710    6539    6464    6463
CTETRA     13459       1    1111    3207    1555    1567
CTETRA     13460       1    3108    3722    2498    3333
CTETRA     13461       1    1217     289      83     291
CTETRA     13462       1    1173    5627    5703    5628
CTETRA     13463       1    1221     292    1392     291
CTETRA     13464       1    2174    3660    2175    4060
CTETRA     13465       1    2174    3661    2175    3660
CTETRA     13466       1    1399    1850     176    1851
CTETRA     13467       1    2369    4988    4987    4991
CTETRA     13468       1    1444    1389    2208    1443
CTETRA     13469       1    6736    6811    3044    3045
CTETRA     13470       1    3526    4061    6124    6049
CTETRA     13471       1      83    1371      79    1884
CTETRA     13472       1    4985    3985    4885    3495
CTETRA     13473       1    4062    1038    6171    6246
CTETRA     13474       1    2323    5158    5168    5184
CTETRA     13475       1    3298    1444     590    3264
CTETRA     13476       1    2174    4063    3704    4060
CTETRA     13477       1    1606    6443    6368    6367
CTETRA     13478       1    2174    2175    1443    4060
CTETRA     13479       1    3813    5183    5184    5168
CTETRA     13480       1    1398    3298    2174    1443
CTETRA     13481       1    3283    3126    3125    3600
CTETRA     13482       1    3498     377    2360     125
CTETRA     13483       1    3926    1591    2589    3031
CTETRA     13484       1    3081    3806    3080    3819
CTETRA     13485       1    6065    3409    5990    6926
CTETRA     13486       1    3428    5190    3655    5192
CTETRA     13487       1    1778    6289    6364    6365
CTETRA     13488       1    2362    3512     811    3031
CTETRA     13489       1     668    6532    6533    6457
CTETRA     13490       1    3926    1830    3512    3470
CTETRA     13491       1    3081    3157    3806    3286
CTETRA     13492       1    3926    1591    2932    2589
CTETRA     13493       1    3926    2276    3652    2932
CTETRA     13494       1    2142     493    4693    4692
CTETRA     13495       1    3926    1591    1830    2276
CTETRA     13496       1    1588    1589    1587    1785
CTETRA     13497       1    1378    1830    2276    1798
CTETRA     13498       1    6363     208    6362    4015
CTETRA     13499       1     412    6211    6286    6287
CTETRA     13500       1    2491    6570    4017    6495
CTETRA     13501       1    4015    6286    6361    6362
CTETRA     13502       1    6438    6363     208    6362
CTETRA     13503       1    2897    3486    2470    5205
CTETRA     13504       1    3926    1591    2276    2932
CTETRA     13505       1    1124    1591    2932    2276
CTETRA     13506       1    1124    2589    3031    2590
CTETRA     13507       1    3952    6451    6375    6450
CTETRA     13508       1    1621    6440    6365    6364
CTETRA     13509       1    2765    3518    2766    3349
CTETRA     13510       1     412    6212    6288    6213
CTETRA     13511       1    3811    6667    3691    6591
CTETRA     13512       1    1283    6417    6418    6342
CTETRA     13513       1    3975     106    4064    4065
CTETRA     13514       1    1359    1332    2831    2341
CTETRA     13515       1    1532    1531    1152    2881
CTETRA     13516       1    2316    1921     678    2326
CTETRA     13517       1    2717    2766    2765    2769
CTETRA     13518       1    3081    1840    3688    4066
CTETRA     13519       1    6362    6363    4015    6287
CTETRA     13520       1    3553    2766    2603    2317
CTETRA     13521       1    2777    6364    6363    6439
CTETRA     13522       1    6284    6283    3580    6359
CTETRA     13523       1    3410    3957    2908     436
CTETRA     13524       1    2345    3883    3045    6813
CTETRA     13525       1    3689    3694    4067    3687
CTETRA     13526       1    3410    3955    2789    3411
CTETRA     13527       1    3162    6430    6429    6505
CTETRA     13528       1    3974     934    2114    6575
CTETRA     13529       1    4024    6430    6506    6431
CTETRA     13530       1    1624    2472    2476    2558
CTETRA     13531       1    1625    1624    1623    2203
CTETRA     13532       1    1337    2472    2558    1342
CTETRA     13533       1    1267    1993    2681    1266
CTETRA     13534       1    3332    6508    6583    6584
CTETRA     13535       1    4028    6358    6357    6433
CTETRA     13536       1    2345    2985    6740    6815
CTETRA     13537       1     363    1265     502     506
CTETRA     13538       1    3339    4295    4553    4560
CTETRA     13539       1    1203    1625    1623    1622
CTETRA     13540       1    1237    1238    1213    1214
CTETRA     13541       1    2068    5145    5144    5201
CTETRA     13542       1     504    1141     276     754
CTETRA     13543       1     541    6685    6686    6610
CTETRA     13544       1    1257    1821    1822    1263
CTETRA     13545       1    4238    6813    4232    2346
CTETRA     13546       1    2245     598    5247    5255
CTETRA     13547       1    3673    2154    5091    5110
CTETRA     13548       1    3580    6359    4029    6284
CTETRA     13549       1    1089    6457    6458    6382
CTETRA     13550       1    2265    6277    6352    6353
CTETRA     13551       1    1337    1249    2472    1342
CTETRA     13552       1    4023    6353    6428    6429
CTETRA     13553       1    5145    2912    5200    5201
CTETRA     13554       1    1339    3261    4068    3263
CTETRA     13555       1    1089    6457    6382    6381
CTETRA     13556       1    1776    1625    3329    1775
CTETRA     13557       1    3081    3819    3080    3928
CTETRA     13558       1    3081    3080    1840    3928
CTETRA     13559       1    3556    6784    6709    6708
CTETRA     13560       1     537    1337    1775     542
CTETRA     13561       1     584     585     586    1340
CTETRA     13562       1    4023    6355    6354    6430
CTETRA     13563       1    1337     312     542    1142
CTETRA     13564       1    1341     608    1338    3261
CTETRA     13565       1    2265    6354    6278    6353
CTETRA     13566       1    1919    5987    6062    6063
CTETRA     13567       1    4023    6354    6353    6429
CTETRA     13568       1    3589    3736    3748    3686
CTETRA     13569       1    2446    5141    7037    7038
CTETRA     13570       1    2597    2716    2600     330
CTETRA     13571       1    3580    6284    6208    6283
CTETRA     13572       1    1340    3262    3261    3263
CTETRA     13573       1    1625    1622    4069    4038
CTETRA     13574       1    6413     340    6337    6338
CTETRA     13575       1    3045    3883    6738    6813
CTETRA     13576       1    3045    2991    4238    4240
CTETRA     13577       1    2684    4601    4603    6953
CTETRA     13578       1    2828    4295    4560    4294
CTETRA     13579       1    2283    2284    6484    6559
CTETRA     13580       1    4070    3045    2991    2346
CTETRA     13581       1    2597    1295    1499    1501
CTETRA     13582       1     460    3449     666    4919
CTETRA     13583       1    4010    6432    6356    6431
CTETRA     13584       1    1775    2203    1625    3329
CTETRA     13585       1    1577    3171    2176    6561
CTETRA     13586       1    4071    1776    1625    3329
CTETRA     13587       1     761    1091    1090    2485
CTETRA     13588       1     979    3837    5420    5495
CTETRA     13589       1    3580    6283    6282    6358
CTETRA     13590       1    3760    6634    6635    6559
CTETRA     13591       1    4024    6355    6430    6431
CTETRA     13592       1     979    5493    3323    5494
CTETRA     13593       1    3165    5193    7040    5194
CTETRA     13594       1     957    1204    1203    1627
CTETRA     13595       1     881    1761     878    1118
CTETRA     13596       1     879    1264     880    1992
CTETRA     13597       1    1098     896    1240    1047
CTETRA     13598       1    6272    2071    6271    6196
CTETRA     13599       1    1365    1118    1241    1097
CTETRA     13600       1     821    1138    1551    1306
CTETRA     13601       1    1862    1864    1863    1889
CTETRA     13602       1    1499    2337    1016    2598
CTETRA     13603       1    2125    4297    4617    4624
CTETRA     13604       1    3231    6348    6424    6349
CTETRA     13605       1    3802    6631    6632    6556
CTETRA     13606       1    3495    2370    4887    4989
CTETRA     13607       1    2190    5142    5143    3254
CTETRA     13608       1    3760    6634    6558    6633
CTETRA     13609       1    1837    2667    4072    2668
CTETRA     13610       1    2539    2667    1837    2668
CTETRA     13611       1    2079    4597    4598    4596
CTETRA     13612       1    6273    4056    2861    6198
CTETRA     13613       1    2034    4576    4300    4598
CTETRA     13614       1    1837    1864    2435    2439
CTETRA     13615       1    2947    3556    6782    6783
CTETRA     13616       1    1835    1371    1836      79
CTETRA     13617       1    3924    6352    6351    6427
CTETRA     13618       1    2068    5145    5151    5150
CTETRA     13619       1    2265    6353    6352    6428
CTETRA     13620       1    1835    1837    2436    2439
CTETRA     13621       1     945    3380    5029    3185
CTETRA     13622       1     979    3323    5493    5418
CTETRA     13623       1    3640    6555    6480    6479
CTETRA     13624       1    2539    1867    1879    1888
CTETRA     13625       1    6778    5019    6871    6777
CTETRA     13626       1    1886    1867    1888    1896
CTETRA     13627       1    1867    1892    1870    1878
CTETRA     13628       1     968    3881     932     933
CTETRA     13629       1    3520    3366    1538    1268
CTETRA     13630       1    3131    5082    5071    5075
CTETRA     13631       1    1016    1013    3137    1499
CTETRA     13632       1    2093    5418     979    4304
CTETRA     13633       1    1499    3920    3137    2337
CTETRA     13634       1    6779    2239    2302    6780
CTETRA     13635       1    2718    1817    2767    2981
CTETRA     13636       1    2984    3425    3780    1521
CTETRA     13637       1    2767    2718    3456    2316
CTETRA     13638       1    1819    1149    3425    1521
CTETRA     13639       1    2683     795    6951    6952
CTETRA     13640       1    2160    6416    6340    6415
CTETRA     13641       1    2240    5017    5016    5018
CTETRA     13642       1     979    3837    5495    5494
CTETRA     13643       1    3073    4568    3069    4565
CTETRA     13644       1    3021    6271    6347    6272
CTETRA     13645       1    1584    5391    4726    4725
CTETRA     13646       1    1041    2247     868    1669
CTETRA     13647       1     559    1298    1724    2247
CTETRA     13648       1    2271    3378    1724    2278
CTETRA     13649       1    2861    6122    6197    6198
CTETRA     13650       1    2577     934    3575    6501
CTETRA     13651       1    2277    2274    1975    1724
CTETRA     13652       1    1176    4724    2421    1584
CTETRA     13653       1    2247     870    1724     868
CTETRA     13654       1    2247    2931    2670     606
CTETRA     13655       1    1584     306    4721    3444
CTETRA     13656       1    1220    2678    2208    1881
CTETRA     13657       1    2374    6268    6344    6269
CTETRA     13658       1    2370    4989    4992    4993
CTETRA     13659       1    2211    2001    4519    4520
CTETRA     13660       1    1292    2692    5154    5197
CTETRA     13661       1    3626    6125    3627    6126
CTETRA     13662       1    2636    3395    1475    3801
CTETRA     13663       1    1893    1827    1862     390
CTETRA     13664       1    3346    2429    1870    1882
CTETRA     13665       1    1869    2740    2429    1870
CTETRA     13666       1    1862    1867    1893    1869
CTETRA     13667       1    4035    6360    6436    6361
CTETRA     13668       1    4035    6360    6359    6435
CTETRA     13669       1    1243    1675    1025    1244
CTETRA     13670       1     106    4065    2888     681
CTETRA     13671       1    6187    6262    6186     336
CTETRA     13672       1    2595    4777    4787    4778
CTETRA     13673       1    3916    6520    6596    6521
CTETRA     13674       1     843    2650    2649    2901
CTETRA     13675       1    1359    2898    1912    2902
CTETRA     13676       1     817    2868    3703     640
CTETRA     13677       1     317    1303    1814    1305
CTETRA     13678       1    2654    2618     880    2415
CTETRA     13679       1     789     788     364     841
CTETRA     13680       1    2294    1963    2354    1066
CTETRA     13681       1     352    3131    5083    5082
CTETRA     13682       1    2354    1066    2286    3550
CTETRA     13683       1    3654    5158    5184    5157
CTETRA     13684       1    1633    6922    6365    6921
CTETRA     13685       1    3813    5183    5190    5184
CTETRA     13686       1    3769    6130    3767    6055
CTETRA     13687       1    1327    1968    3226    1972
CTETRA     13688       1    1292    1293    2692    5197
CTETRA     13689       1    1513     709    1951    1965
CTETRA     13690       1     670    2355    2354    2434
CTETRA     13691       1    3005    6368    6369    6293
CTETRA     13692       1     670    2354    1835    2434
CTETRA     13693       1    3500    3926    3470    1830
CTETRA     13694       1    5069    5081    6771    6878
CTETRA     13695       1    3500    1798    1830     751
CTETRA     13696       1    1588    1591    1123    1378
CTETRA     13697       1    3655    5204    5208    5205
CTETRA     13698       1    2595    4778    4786    4779
CTETRA     13699       1    2916    4009    2918    3989
CTETRA     13700       1    2886     436     437    2910
CTETRA     13701       1    1124    2932    1591    2589
CTETRA     13702       1    3174    5189    5203    5204
CTETRA     13703       1    1682    1876    1880    1846
CTETRA     13704       1    3354    5119    3610    3611
CTETRA     13705       1    1841     583    1776    4073
CTETRA     13706       1    1775     583    1204     585
CTETRA     13707       1    1282    6341    6265    6340
CTETRA     13708       1    3426    6471    6396    6395
CTETRA     13709       1    1841    1776    1795    4073
CTETRA     13710       1    7038     418    2470    2446
CTETRA     13711       1    6346    6270    2071    3225
CTETRA     13712       1    1950    1953    2907    1968
CTETRA     13713       1     584     583     818     586
CTETRA     13714       1    1584    4721    2421    3444
CTETRA     13715       1     583    3156    3282     818
CTETRA     13716       1    2120    7032     128    7033
CTETRA     13717       1    3126    3432    3600    3283
CTETRA     13718       1     352    3142    6699    6774
CTETRA     13719       1    1584    4725    4730    4731
CTETRA     13720       1    3765    6281    6205    6280
CTETRA     13721       1    5149    5141    7037    2446
CTETRA     13722       1     356     352    3130    3131
CTETRA     13723       1    1767    6289    6214    6213
CTETRA     13724       1    3790    3791    3195    4000
CTETRA     13725       1    3177    4746    4734    4733
CTETRA     13726       1    3126    3432    2423     170
CTETRA     13727       1    3966    4765    4762    4763
CTETRA     13728       1     155     153     231    3126
CTETRA     13729       1    1447    2464    2954    1971
CTETRA     13730       1    2954    3126    2423    2464
CTETRA     13731       1    1778    6289    6365    6290
CTETRA     13732       1    2778    6289    6288    6364
CTETRA     13733       1    3281    6137    6212    6213
CTETRA     13734       1    2954    3432    1971    2423
CTETRA     13735       1    2954    2499    3929    3125
CTETRA     13736       1    1924    1688    1590     573
CTETRA     13737       1    1378    3512    3511    1591
CTETRA     13738       1     218    6546    6547    6471
CTETRA     13739       1    3512     811    3031    3926
CTETRA     13740       1    3031    3517    1996    2362
CTETRA     13741       1    4015    6287    6286    6362
CTETRA     13742       1     412    6287    6363    6288
CTETRA     13743       1    3031    1996    2590    2232
CTETRA     13744       1     106     681    4064    4065
CTETRA     13745       1     411     908     395     109
CTETRA     13746       1    2682    4774    4784    4785
CTETRA     13747       1    2580    4787    4785    4667
CTETRA     13748       1    2804    6286    6210    6285
CTETRA     13749       1    3031    2589    2232    2590
CTETRA     13750       1    2538    4665    4787    4666
CTETRA     13751       1    1187    1188    1721    1723
CTETRA     13752       1    1819    2984    2823    1817
CTETRA     13753       1    2739    5997    2293    3296
CTETRA     13754       1     817    2866    2868    2185
CTETRA     13755       1    4781    2593     793    2594
CTETRA     13756       1    3028     356     352    3130
CTETRA     13757       1    2369    4988    4989    3619
CTETRA     13758       1    1475    6528    6452    6527
CTETRA     13759       1    1741    1721    1348    2643
CTETRA     13760       1    1348    1741    2643    1360
CTETRA     13761       1    3803    4578    2465    3189
CTETRA     13762       1    1712    6605    6606    6530
CTETRA     13763       1    1348    2643    1517    1360
CTETRA     13764       1    3769    6054    6129    6130
CTETRA     13765       1    1847    3163    1978    2693
CTETRA     13766       1    1951    3656    1950    2920
CTETRA     13767       1    1031    1205    3760    3556
CTETRA     13768       1     255    2297    3476    1238
CTETRA     13769       1     881    1761    1213    1238
CTETRA     13770       1    3802    6633    6557    6632
CTETRA     13771       1    2618     845    1227    2266
CTETRA     13772       1     352    5082    3130    3131
CTETRA     13773       1    4024    6355    6431    6356
CTETRA     13774       1    3578    6281    6356    6357
CTETRA     13775       1    3131     352    5083     354
CTETRA     13776       1     880    3465    1609    2654
CTETRA     13777       1    1264    2266     880    1992
CTETRA     13778       1    1117    1118     878    1761
CTETRA     13779       1    2946    6787    6712    6711
CTETRA     13780       1    3584    6202    6277    6278
CTETRA     13781       1    3022    2219     159    1561
CTETRA     13782       1     878    1994    3995    3476
CTETRA     13783       1    2079    2080    2456    2078
CTETRA     13784       1    6791    6858    6790    4973
CTETRA     13785       1    1117    1758     878    3995
CTETRA     13786       1    2289    6707    3556    3802
CTETRA     13787       1    6138    1394    6062    1919
CTETRA     13788       1    3171    6712    6636    6711
CTETRA     13789       1    4052    6275    6199    6274
CTETRA     13790       1     888     887    2750    2794
CTETRA     13791       1    2748     895    3248    4048
CTETRA     13792       1     377      49    2380     378
CTETRA     13793       1    2749    3912    2748    2751
CTETRA     13794       1    3578    6206    6282    3582
CTETRA     13795       1    2748    3976    4048    3248
CTETRA     13796       1    2828    4294    4559    4293
CTETRA     13797       1    1048    3482    1047    1748
CTETRA     13798       1    1978    1959    2907    2764
CTETRA     13799       1    3247    2751    2748    3976
CTETRA     13800       1     673     490    1871    1802
CTETRA     13801       1     210     756     258     262
CTETRA     13802       1    1968    1966    1953    4074
CTETRA     13803       1    4028    6357    6432    6433
CTETRA     13804       1    7038     417    2446    5141
CTETRA     13805       1    1959    3573    2575    3163
CTETRA     13806       1    1569    2854    2182    2183
CTETRA     13807       1    1459    2754    3300    2976
CTETRA     13808       1    2755    3300    2754    2785
CTETRA     13809       1    1399    1113     589    1398
CTETRA     13810       1    3578    6282    6281    6357
CTETRA     13811       1    1029    1205    3171    3760
CTETRA     13812       1    4020    6280    6355    6356
CTETRA     13813       1    3548    3604    4075    3765
CTETRA     13814       1    2380    2903    5060    6764
CTETRA     13815       1    3147    6715     134    3149
CTETRA     13816       1    2397    1140    6691     373
CTETRA     13817       1    3149    6714    6715    6639
CTETRA     13818       1    5984    2891    4076    5909
CTETRA     13819       1    2176    6637    6638    6562
CTETRA     13820       1    3627    6275    6276    6200
CTETRA     13821       1    3725    2953     294     149
CTETRA     13822       1     333     603     599    1471
CTETRA     13823       1    2755    1572    3300    2784
CTETRA     13824       1    1413    1810    1807    1809
CTETRA     13825       1    1267    2472    2558    2476
CTETRA     13826       1    2251    1310    1366    4707
CTETRA     13827       1    3435    1807    1413    3199
CTETRA     13828       1    4056    6273    6349    6274
CTETRA     13829       1    2811    4292    4293    4564
CTETRA     13830       1    1331     523    5534    5535
CTETRA     13831       1    2259    4704    5458    4706
CTETRA     13832       1    4077    4618    4616    4617
CTETRA     13833       1    6272    4056    2861    6273
CTETRA     13834       1    2466    4597    4594    4574
CTETRA     13835       1    2170    3324    2169    2934
CTETRA     13836       1    1627    1622    2299    3199
CTETRA     13837       1    2913    6607    6606    6682
CTETRA     13838       1    1263    1262    1822    1257
CTETRA     13839       1     644    4561    4567    4562
CTETRA     13840       1    1877    2974    1876    3975
CTETRA     13841       1     894    1236    1092    2814
CTETRA     13842       1    2750     895     887     897
CTETRA     13843       1    4075    6355    6279    6354
CTETRA     13844       1    2251    2253    2097    4078
CTETRA     13845       1    2750     887    3683    2794
CTETRA     13846       1    2792    3450    3570    3569
CTETRA     13847       1    3999    3542    4079    6051
CTETRA     13848       1    4053    1475    6453    1476
CTETRA     13849       1    1476    1487    6451    6376
CTETRA     13850       1    2086    5676    5751    5752
CTETRA     13851       1    3604    6203    6278    6279
CTETRA     13852       1    3393    6679    6604    6603
CTETRA     13853       1    5452    7015    4292    7014
CTETRA     13854       1    2389    6453    6454    6378
CTETRA     13855       1    6454    2925    2389    6455
CTETRA     13856       1    1151    2793    3853    1148
CTETRA     13857       1    1168    3454    1931    2638
CTETRA     13858       1    3626    6126    6050    6125
CTETRA     13859       1    5968     791    5969    2246
CTETRA     13860       1    3797    3383    3385    3782
CTETRA     13861       1    6337    6262    6338     340
CTETRA     13862       1    2792    3569    2793    3450
CTETRA     13863       1    1156    2793    1148    2643
CTETRA     13864       1    1688    2996     513    2584
CTETRA     13865       1    1463     515     512     563
CTETRA     13866       1    3272    1247    5237    5236
CTETRA     13867       1    3226    4037    3790    4000
CTETRA     13868       1    2861    6196    6272    6197
CTETRA     13869       1     709    3815    4080    4031
CTETRA     13870       1    1379    1377    1405    1376
CTETRA     13871       1    3139    5896    5895    5971
CTETRA     13872       1    2596    6682     680    2197
CTETRA     13873       1     973     597     596    3274
CTETRA     13874       1    3592    1726    1727     597
CTETRA     13875       1    1588    1378    1376    1377
CTETRA     13876       1    4081    5756    5831    5832
CTETRA     13877       1    2072    6119    6194    6195
CTETRA     13878       1    4062    6244     857    6245
CTETRA     13879       1    2241    5008    5007    5017
CTETRA     13880       1    3652    2271    2276    2278
CTETRA     13881       1    2526    5319    2460    6910
CTETRA     13882       1    1724    1462     868     870
CTETRA     13883       1    2507    2509    1927    2583
CTETRA     13884       1    1764    2534    2863    2583
CTETRA     13885       1    1619     208    2774      99
CTETRA     13886       1    1206    1208     697    1211
CTETRA     13887       1    3627    6276    6201    6200
CTETRA     13888       1    1131    2502    1013    1022
CTETRA     13889       1    2637    2616    5256    6754
CTETRA     13890       1    2913    6532    2928     668
CTETRA     13891       1    1726    2245    5255     597
CTETRA     13892       1    2003    5420    4481    4483
CTETRA     13893       1    4027    6047    6122    6123
CTETRA     13894       1    1407    5986    6061    6062
CTETRA     13895       1    3127    6600    6525    6524
CTETRA     13896       1    3127    6525    6449    6524
CTETRA     13897       1    4082    5970    6045    6046
CTETRA     13898       1    3127    6600    6524    6599
CTETRA     13899       1    1196    1661    3952    2224
CTETRA     13900       1    2054     775    2231    1699
CTETRA     13901       1    4559    2828    4293    2838
CTETRA     13902       1     979    4483    2003    4484
CTETRA     13903       1    1129    1130    1034    1000
CTETRA     13904       1    1753    1076    1295    2709
CTETRA     13905       1    1285    1286     829    1290
CTETRA     13906       1    3924    6276    6275    6351
CTETRA     13907       1    3924    6277    6276    6352
CTETRA     13908       1    2562    6424    2117    6425
CTETRA     13909       1     335     529    3487    3557
CTETRA     13910       1     979    4484    2003    3014
CTETRA     13911       1    1616    2309    1614    1600
CTETRA     13912       1     845     880    2618    1706
CTETRA     13913       1    2645    1227    2100    1229
CTETRA     13914       1    2244    6193    6269    6194
CTETRA     13915       1    2786    2787    2444    2775
CTETRA     13916       1    3964    3017    3303    1194
CTETRA     13917       1     979    3014    2818    4484
CTETRA     13918       1    2003    2051    3235    4479
CTETRA     13919       1    1188    1193    1194    3129
CTETRA     13920       1    4083    6118    6193    6194
CTETRA     13921       1    1194    3017    3303    3018
CTETRA     13922       1    1191    1194    3017    2659
CTETRA     13923       1    2804    6286    6285    6361
CTETRA     13924       1    6285    6284    2804    6360
CTETRA     13925       1    3281    6137    6213    6138
CTETRA     13926       1    2003    3014    4479    3235
CTETRA     13927       1    2683    6952    2460    6953
CTETRA     13928       1    1819    3425    1149    1152
CTETRA     13929       1    3746    5903    5902    5978
CTETRA     13930       1    3395    6677    6602    6601
CTETRA     13931       1    1191    3015    2937    3018
CTETRA     13932       1    1778    6923    6290    6922
CTETRA     13933       1    1274    1277    1193    1192
CTETRA     13934       1    2005    6145    6221    6146
CTETRA     13935       1    3428    5191    5184    5190
CTETRA     13936       1    3358    6598    6523    6522
CTETRA     13937       1    2587    6144    6145    6069
CTETRA     13938       1    2683    2460    7067    6953
CTETRA     13939       1    1632    6292    6216    6291
CTETRA     13940       1    1274    2483     348    1581
CTETRA     13941       1    3119    2014    3567    3118
CTETRA     13942       1    1788    6215    6923    6924
CTETRA     13943       1     306    4729    4730    4721
CTETRA     13944       1    3477    4678    4284    4285
CTETRA     13945       1    3714    5189    5204    5190
CTETRA     13946       1    1767    6138    6213    6214
CTETRA     13947       1     892    4743    4742    4757
CTETRA     13948       1     163    4720    4737    5463
CTETRA     13949       1    2015    4286    4683    4677
CTETRA     13950       1    2089     906    2014    3567
CTETRA     13951       1    5465    4731    4728    7028
CTETRA     13952       1    4728    2398     306    4731
CTETRA     13953       1    3395    6602    6527    6526
CTETRA     13954       1    1598    5614    5538    5613
CTETRA     13955       1     867     770    1558    1669
CTETRA     13956       1    2090    3118    2089    2014
CTETRA     13957       1    2072    6195    6271    6196
CTETRA     13958       1    5312    6947    5313     642
CTETRA     13959       1    3815    3901    3882    3702
CTETRA     13960       1    2089     906    3566     904
CTETRA     13961       1    6944     639     638    6945
CTETRA     13962       1    2072    6195    6194    6270
CTETRA     13963       1     607    1505    1506     609
CTETRA     13964       1    1020    3119    1967    2014
CTETRA     13965       1    2797    3901    3882    3815
CTETRA     13966       1     274    1142     542     312
CTETRA     13967       1    3527    3532    4773    4772
CTETRA     13968       1    4075    6280    6279    6355
CTETRA     13969       1    1251    1626    2798    2797
CTETRA     13970       1     418    5208     417    7038
CTETRA     13971       1    3337    2210    4621    4622
CTETRA     13972       1    3097    2433    1223    3695
CTETRA     13973       1    5308    6943    5309    2212
CTETRA     13974       1     431    1335    2722    1898
CTETRA     13975       1    2212    6943    5309    6944
CTETRA     13976       1    1307      39    3695      37
CTETRA     13977       1     738    1571     670    1964
CTETRA     13978       1    1767    6139    6214    6215
CTETRA     13979       1    1621    6440    6364    6439
CTETRA     13980       1    2804    6209    6284    6285
CTETRA     13981       1    1502    6535    6459    6534
CTETRA     13982       1    1502    6534    6458    6533
CTETRA     13983       1    3696    2995     156      38
CTETRA     13984       1    2883    3870    3528    3423
CTETRA     13985       1    1804    3106    2200    3340
CTETRA     13986       1    2801    6208    6207    6283
CTETRA     13987       1    3580    6208    6284    6209
CTETRA     13988       1    1804    3243    1806    3249
CTETRA     13989       1    1731    4895    3673    4894
CTETRA     13990       1     709    3815    2797    4080
CTETRA     13991       1     668    6456    2925    6531
CTETRA     13992       1    6952    2460    6951    2683
CTETRA     13993       1    3435    3430    1803    1809
CTETRA     13994       1    3604    6203    6202    6278
CTETRA     13995       1    3415    1803    3430    3252
CTETRA     13996       1    2625    3357    3624    2624
CTETRA     13997       1    3604    6279    6204    6203
CTETRA     13998       1    2683    4084    2213    6950
CTETRA     13999       1    1804    3413    3415    2058
CTETRA     14000       1    5832    4076    5908    5907
CTETRA     14001       1    3604    6203    6128    6127
CTETRA     14002       1    2802    6210    6134    6209
CTETRA     14003       1    1803    1805    1804    3415
CTETRA     14004       1    2397    2906    6690    2387
CTETRA     14005       1    3040    6535    6536    6460
CTETRA     14006       1    3604    6127    6202    6203
CTETRA     14007       1    1804    1806    3340    1805
CTETRA     14008       1    2989    3774    3254    3985
CTETRA     14009       1    1703    1705    1483    1464
CTETRA     14010       1    2804    6210    6209    6285
CTETRA     14011       1     412    6212    6211    6287
CTETRA     14012       1    1703    1465    1483    1484
CTETRA     14013       1    2374    6344    6268    6343
CTETRA     14014       1    2802    6135    6134    6210
CTETRA     14015       1    3561    3761    4085    3620
CTETRA     14016       1     642    6948    1506     792
CTETRA     14017       1     668    6457     667    1089
CTETRA     14018       1    1396    6136    6211    6212
CTETRA     14019       1    3655    1293    3833    3428
CTETRA     14020       1    6934    7069    4725    4731
CTETRA     14021       1    3628    4086    3632    2187
CTETRA     14022       1     318    4746     496    4753
CTETRA     14023       1     607    3307     609    1506
CTETRA     14024       1    1907    6061    5985    6060
CTETRA     14025       1    1483    4087    3224    1986
CTETRA     14026       1    1483    1464    1466    1465
CTETRA     14027       1    1470    3224    1483    1466
CTETRA     14028       1     340    6262    6338    6263
CTETRA     14029       1    1448    1512    1447     621
CTETRA     14030       1    2940    3072    1018    1010
CTETRA     14031       1    4056    6349    6273    6348
CTETRA     14032       1    2486    2350    4005     656
CTETRA     14033       1    2808    3876    3590    4088
CTETRA     14034       1    2129    5266    2131    5273
CTETRA     14035       1    3582    6207    6206    6282
CTETRA     14036       1    1435    1434    2349    2057
CTETRA     14037       1    2701    4785    2682    2680
CTETRA     14038       1    2548    3604    4089    3627
CTETRA     14039       1    3768    6052    6127    6128
CTETRA     14040       1    3768    4089    2547    3604
CTETRA     14041       1    2613    7034    2059    5035
CTETRA     14042       1    2349    3196    3667    3082
CTETRA     14043       1     535    5453    5454    7016
CTETRA     14044       1    3630    6668    6667    6743
CTETRA     14045       1    2970    6669    3052    6668
CTETRA     14046       1    3854    3600    3714    5189
CTETRA     14047       1    1434    3667    2057    2896
CTETRA     14048       1    1639    1637    2988    1638
CTETRA     14049       1    2015    4677    4285    4286
CTETRA     14050       1    2212    2563    5323    5322
CTETRA     14051       1    1767    6215    6214    6290
CTETRA     14052       1     884     896     890     897
CTETRA     14053       1    3020    3098    3095    3055
CTETRA     14054       1    3669     213     214     215
CTETRA     14055       1    3865    6591    6516    6919
CTETRA     14056       1    1019    1017    1018     807
CTETRA     14057       1    1010    3247    1048    1748
CTETRA     14058       1    2751    3247    1048    1010
CTETRA     14059       1    1302    1477    3681    5239
CTETRA     14060       1    3721    5922    5847    5846
CTETRA     14061       1    1032    6673    6674    6598
CTETRA     14062       1     713    3778    1302    5232
CTETRA     14063       1    2153    6672    6597    6596
CTETRA     14064       1    1200    2224    2279    2574
CTETRA     14065       1     888    2794    2750    2752
CTETRA     14066       1    1520    1402    2696    1871
CTETRA     14067       1    1402    2696    1866    3169
CTETRA     14068       1     494    1520    2186    1871
CTETRA     14069       1    4052    6198    6274    6199
CTETRA     14070       1    2563    2460    5307    2212
CTETRA     14071       1    5310    6944     639    2212
CTETRA     14072       1    2072    6120    6195    6196
CTETRA     14073       1    6942    5307    7067    2260
CTETRA     14074       1    2905    6037    5962    5961
CTETRA     14075       1    6521    6522    1685    6446
CTETRA     14076       1    4077    4617    4616    4623
CTETRA     14077       1     983    1271    1820    1697
CTETRA     14078       1    3814    1990    3815    2986
CTETRA     14079       1     670    2354     673    1963
CTETRA     14080       1     673    1866    1802    1871
CTETRA     14081       1     312    1121     313     542
CTETRA     14082       1    2755    1865    1802    2257
CTETRA     14083       1    6281    3578    3765    6206
CTETRA     14084       1     673    2294     672    1963
CTETRA     14085       1    4075    6280    6204    6279
CTETRA     14086       1    1222    2722    1873     440
CTETRA     14087       1    2407    2406    4602    6942
CTETRA     14088       1    1394    3281    1919    6138
CTETRA     14089       1    3767    6130    6205    6206
CTETRA     14090       1    3941    1222    2722    1873
CTETRA     14091       1    2212    2460    2213    1728
CTETRA     14092       1    4079    5902    5901    5977
CTETRA     14093       1    3057    4611    4616    4612
CTETRA     14094       1    3767    6055    6130    6131
CTETRA     14095       1     218    6471    6547    6472
CTETRA     14096       1     374    6542    6617    6618
CTETRA     14097       1    1589    2590    3031    3517
CTETRA     14098       1    1590    2584    1124    2589
CTETRA     14099       1    4052    6125    6124    6200
CTETRA     14100       1    5312    2213    5313    1728
CTETRA     14101       1    2861    6123    6122    6198
CTETRA     14102       1    1405    1323    1587    1379
CTETRA     14103       1    2282    1322    1323    3294
CTETRA     14104       1    2212    1728    5324    2563
CTETRA     14105       1    2213    2460    5316    1728
CTETRA     14106       1     573    2996     513    1688
CTETRA     14107       1     512    1688    1126     513
CTETRA     14108       1    2446     418    2470    3208
CTETRA     14109       1    1592    5541    5617    5542
CTETRA     14110       1    3775     171    2419    3774
CTETRA     14111       1    4029    6284    6359    6360
CTETRA     14112       1     627     662     519     937
CTETRA     14113       1    1628    1158    1108    1635
CTETRA     14114       1    2516    2614    2641    1635
CTETRA     14115       1    1736    2145    1160    2640
CTETRA     14116       1    2665    3770    1638    3774
CTETRA     14117       1    2608    3770    2665    3771
CTETRA     14118       1    6197    2861    2827    6122
CTETRA     14119       1    2072    6120    6119    6195
CTETRA     14120       1    3569    5888    2905    3897
CTETRA     14121       1    2213    1728    5316    5315
CTETRA     14122       1    1580    1026    1272    1244
CTETRA     14123       1    1948    1940    2455    1945
CTETRA     14124       1    2827    6047    6046    6122
CTETRA     14125       1    6946    5312     639    6947
CTETRA     14126       1    2825    6044    6119    6120
CTETRA     14127       1    3582    6207    2801    6132
CTETRA     14128       1    2375    4090    6108    1467
CTETRA     14129       1    3887    5804    5879    5880
CTETRA     14130       1    2988    2665    3774    2989
CTETRA     14131       1    6742    6906    6907    5285
CTETRA     14132       1    2664    2808    2988     169
CTETRA     14133       1    2665    2988    2664    2989
CTETRA     14134       1    3360    3817    4091    4040
CTETRA     14135       1    4089    6126    6202    6127
CTETRA     14136       1    1573    2853    2851    2671
CTETRA     14137       1    2213    1728    5315    5314
CTETRA     14138       1    2213    1728    5314    5313
CTETRA     14139       1    3555    5973    6048    6049
CTETRA     14140       1    6592    6591    3865    3691
CTETRA     14141       1    5739    4092    5740    5815
CTETRA     14142       1    2466    4597    4599    4594
CTETRA     14143       1    3626    6049    6124    6125
CTETRA     14144       1    3896    3361    4040    3360
CTETRA     14145       1    3965    3304    4587    4600
CTETRA     14146       1    3811    6742    6667    6666
CTETRA     14147       1    3942    4093    5905    3946
CTETRA     14148       1    1488    1476    1487    3919
CTETRA     14149       1    1728    5316    2422    2460
CTETRA     14150       1    1684    6520    6521    6445
CTETRA     14151       1    3896    3862    4040    3300
CTETRA     14152       1    1814    3124     153     154
CTETRA     14153       1    3627    6201    6276    6277
CTETRA     14154       1    3627    6126    6125    6201
CTETRA     14155       1    1599    1018    2328    1962
CTETRA     14156       1    2729    2849    2730    2140
CTETRA     14157       1    2417    1629    3669    1637
CTETRA     14158       1    2683     794    6951     795
CTETRA     14159       1    1629    3669     247     213
CTETRA     14160       1    5967    3794    2246    6042
CTETRA     14161       1    4083    6119    6118    6194
CTETRA     14162       1    2212    2460    1728    2563
CTETRA     14163       1    3763    3762    3708    2594
CTETRA     14164       1    2526    2422    2460    2563
CTETRA     14165       1     274    1142     537     542
CTETRA     14166       1    3765    6204    6280    6205
CTETRA     14167       1    1834    1526    1671    2383
CTETRA     14168       1    1702    1737    1736    1734
CTETRA     14169       1    3032    2445    2059    2446
CTETRA     14170       1    1369    2321    2320    2319
CTETRA     14171       1    2422    1728    2460    2563
CTETRA     14172       1    2563    5319    2460    2526
CTETRA     14173       1    5741    2191    2192    5740
CTETRA     14174       1    2988    2665    1638    3774
CTETRA     14175       1     161     153     156     154
CTETRA     14176       1    2072    6120    6196    6121
CTETRA     14177       1     301     638     640    2555
CTETRA     14178       1    2628    2735    2727    2631
CTETRA     14179       1    4083    6043    6118    6119
CTETRA     14180       1    2143    2246    6042    6117
CTETRA     14181       1    1799    1829    3071    3328
CTETRA     14182       1    1376    1378    1799    1379
CTETRA     14183       1    2827    6046    6121    6122
CTETRA     14184       1    3926    1591    3031    3512
CTETRA     14185       1    6926    3408    6065    3409
CTETRA     14186       1    3089    3263     831    2866
CTETRA     14187       1    2510    2877    2790    2511
CTETRA     14188       1    1474    2408     162    1891
CTETRA     14189       1    1767    6139    6138    6214
CTETRA     14190       1    1768    6140    6215    6924
CTETRA     14191       1    1913    5986    5910    5985
CTETRA     14192       1    6068    2587    6144    4021
CTETRA     14193       1    2161    3664    2740    3564
CTETRA     14194       1    3717    6921    6366    6922
CTETRA     14195       1    2184    5477    5402    5401
CTETRA     14196       1    3091    5246    5250    5223
CTETRA     14197       1    5851    5850    3085    5926
CTETRA     14198       1    3664    4094    4095    2037
CTETRA     14199       1     162    1891    4854    1474
CTETRA     14200       1     512    4096    1463    3353
CTETRA     14201       1    2268    1794    1810    4097
CTETRA     14202       1     512     515     514     563
CTETRA     14203       1    4043    5840    5915    6928
CTETRA     14204       1    3662    3703     816     819
CTETRA     14205       1    2226    4596    4303    1686
CTETRA     14206       1    2796    2594     794     793
CTETRA     14207       1     571    1688     573     572
CTETRA     14208       1     650    1174    2510    2790
CTETRA     14209       1    2019     162    2615    4841
CTETRA     14210       1    1113    1496     589     290
CTETRA     14211       1    1799    3071    1885     498
CTETRA     14212       1     530    1345    1056     490
CTETRA     14213       1     572     574     571    2790
CTETRA     14214       1    2119    2059    2613    7034
CTETRA     14215       1    1772    1773    2453    1787
CTETRA     14216       1    2510     515     514    2877
CTETRA     14217       1    4043    6929    5840    6928
CTETRA     14218       1     969    6550    6551    6475
CTETRA     14219       1     588    1081     863     862
CTETRA     14220       1    1891    2615    4844    4845
CTETRA     14221       1    3208     417    2446     418
CTETRA     14222       1    3001    6626    6550    6625
CTETRA     14223       1    3433    2826    2835    2884
CTETRA     14224       1    1708    1710    1709    2675
CTETRA     14225       1     162    2615    4841    1891
CTETRA     14226       1    1891    2615    4843    4844
CTETRA     14227       1    2390    1239    1949    1925
CTETRA     14228       1    3015    2134    1273    1675
CTETRA     14229       1    2801    6207    6282    6283
CTETRA     14230       1    2243    6194    6269    6270
CTETRA     14231       1    2466    4594    4599    4595
CTETRA     14232       1    2833    2848    3541    2514
CTETRA     14233       1    1526    1133    2835    2531
CTETRA     14234       1    1936    1937    1239    1934
CTETRA     14235       1    6134    6133    2802    6209
CTETRA     14236       1    2378    1239    1925    1938
CTETRA     14237       1    3582    6132    6131    6207
CTETRA     14238       1    1239    1925    1938    1949
CTETRA     14239       1    3344    1535    3632    3306
CTETRA     14240       1    5019     950    6777    6778
CTETRA     14241       1    1891    2615    4842    4843
CTETRA     14242       1    1473    4867    4879    4881
CTETRA     14243       1    3984    6058    4098    6057
CTETRA     14244       1    2780    1904    2831    2830
CTETRA     14245       1    2044    5129    3899    5115
CTETRA     14246       1    1213    1215    3970    1805
CTETRA     14247       1    3984    6133    6057    6132
CTETRA     14248       1     696    1167     698    1168
CTETRA     14249       1    1635    1628    1636    1637
CTETRA     14250       1    2645    2618    2266    2653
CTETRA     14251       1    1906    6058    6133    6134
CTETRA     14252       1    2535    3903    3902    3473
CTETRA     14253       1     129    7038    2446    7037
CTETRA     14254       1    1857    1995    5369    5356
CTETRA     14255       1    1065    2439    1066    2286
CTETRA     14256       1     901     967    5118     902
CTETRA     14257       1    1995    1552    2420    5378
CTETRA     14258       1    3342    5819    5818    5894
CTETRA     14259       1    2122    1575    2295     769
CTETRA     14260       1    1995    5355    6913    5367
CTETRA     14261       1     638    2407    2260    2261
CTETRA     14262       1     864    2122     672     673
CTETRA     14263       1    1434    2353    2349    3667
CTETRA     14264       1    1835    2435    2354    2439
CTETRA     14265       1    1065    1963    1575    1066
CTETRA     14266       1    3604    6129    6128    6204
CTETRA     14267       1    3767    6130    6206    6131
CTETRA     14268       1     933    6474    6475    6399
CTETRA     14269       1     745     509    2403     403
CTETRA     14270       1    2537    5379    4873    5380
CTETRA     14271       1    2537    1995    6915    5379
CTETRA     14272       1    1747    5900    5975    5976
CTETRA     14273       1    2537    1059    5382    5383
CTETRA     14274       1    3746    5902    5977    5978
CTETRA     14275       1    1802    1866    2355    2257
CTETRA     14276       1    4099    3744    4100    6101
CTETRA     14277       1    2354    2434    3550    2435
CTETRA     14278       1    2294    2354    2355    3550
CTETRA     14279       1    2900    6549    6550    6474
CTETRA     14280       1    2838    4564    4559    4561
CTETRA     14281       1    2384    3492    2522    2353
CTETRA     14282       1    1601    3258    1230    4030
CTETRA     14283       1    1267    1266    2681    2706
CTETRA     14284       1    3746    5977    6052    6053
CTETRA     14285       1    1268    2703    2559    3520
CTETRA     14286       1    1538    3520    2559    1536
CTETRA     14287       1    2663    2489    2488    2377
CTETRA     14288       1    1919    6064    6063    6139
CTETRA     14289       1    6215    6139    1768    1767
CTETRA     14290       1    1672    2377    2663    2488
CTETRA     14291       1    2741    2874    2581    4459
CTETRA     14292       1    1995    5356    1857    5355
CTETRA     14293       1    1995     634    1552    5378
CTETRA     14294       1    3682    5993    2893    6068
CTETRA     14295       1    1988    1166    1165    1954
CTETRA     14296       1    1396    6136    6212    6137
CTETRA     14297       1    2381    2361    2425    1828
CTETRA     14298       1    1396    6136    6135    6211
CTETRA     14299       1    3804    3654    3813    3428
CTETRA     14300       1    3253    3774    2943    3254
CTETRA     14301       1    6687    6762     538    2381
CTETRA     14302       1     674     319     863     616
CTETRA     14303       1    1907    5985    5984    6060
CTETRA     14304       1     642    6947     792    6946
CTETRA     14305       1    1436    2371    2383    2365
CTETRA     14306       1    2662    2487    3698    3834
CTETRA     14307       1    1436    1437    1435    2383
CTETRA     14308       1    4052    6123    6199    6124
CTETRA     14309       1    2903    2363    5056    5057
CTETRA     14310       1    2349    2366    2351    3200
CTETRA     14311       1    4101    4620    4623    4616
CTETRA     14312       1    4102    2246    6044    5969
CTETRA     14313       1    4061    6048    6123    6124
CTETRA     14314       1    3068    3771    2990    3066
CTETRA     14315       1    2591    2592    2665    1638
CTETRA     14316       1     532    5454    5455    4714
CTETRA     14317       1     134    3149    6715    6640
CTETRA     14318       1    2481    3007    2480    2081
CTETRA     14319       1    2246    5968    6043    6044
CTETRA     14320       1    1539    1579    2914    1536
CTETRA     14321       1    2838    4559    4560    4558
CTETRA     14322       1    2405    3007    2923    2311
CTETRA     14323       1    1920    1616    1334    2311
CTETRA     14324       1     133    6792    6793    6717
CTETRA     14325       1    2825    6046    6045    6121
CTETRA     14326       1    2326    1921    2501    2324
CTETRA     14327       1    4082    5971    6046    6047
CTETRA     14328       1    2858    4103    2860    4104
CTETRA     14329       1     358    1603     362    1324
CTETRA     14330       1    2646    2650    2901    2649
CTETRA     14331       1    2646    2649    2901    2648
CTETRA     14332       1    2903    5057    2425    2363
CTETRA     14333       1    2645    2618    3461    2791
CTETRA     14334       1    4027    6048    6047    6123
CTETRA     14335       1    3942    5905    5904    5980
CTETRA     14336       1    2708    3255    4778    2595
CTETRA     14337       1    3390    5761    5685    5760
CTETRA     14338       1    2649    3258    2901    2648
CTETRA     14339       1    2703    2559    3520    2679
CTETRA     14340       1    2559     609    3812    3763
CTETRA     14341       1    4027    6048    5973    5972
CTETRA     14342       1    4089    6052    6051    6127
CTETRA     14343       1     471    4591    2904    3305
CTETRA     14344       1    2714    2713    2393    4668
CTETRA     14345       1    1704    4087    6030    6105
CTETRA     14346       1    2903    1828    5065    6762
CTETRA     14347       1    1267    1269    2472    2476
CTETRA     14348       1    2703    2679    2702    2731
CTETRA     14349       1    5676    5677     371    5601
CTETRA     14350       1     134    6716    6641    6640
CTETRA     14351       1    1832    1227    2266    2267
CTETRA     14352       1    2559    3812    1536    3520
CTETRA     14353       1    2903    6763    5065    5060
CTETRA     14354       1    3626    6051    6050    6126
CTETRA     14355       1     928    2991    4241    4236
CTETRA     14356       1    2920     928     826    2982
CTETRA     14357       1    4082    3139    5970    5971
CTETRA     14358       1    2179    5811    5810    5886
CTETRA     14359       1     826    4237    4229     928
CTETRA     14360       1    1973    2670    3969    2277
CTETRA     14361       1    2534    2519    2384    3903
CTETRA     14362       1    2277    3426    2846     606
CTETRA     14363       1    2152    6000    5925    5924
CTETRA     14364       1    4034    5923    5848    5847
CTETRA     14365       1    2277    1973    2272    3426
CTETRA     14366       1     299    4769    4748    4770
CTETRA     14367       1    3408    6064    6139    6140
CTETRA     14368       1    3408    6064    6140    6065
CTETRA     14369       1    2274    2277    2846     920
CTETRA     14370       1    1768    6925    6065    6140
CTETRA     14371       1    4105    5691    5767    5692
CTETRA     14372       1    3085    5851    5927    5852
CTETRA     14373       1    6641     133    6642    6717
CTETRA     14374       1    5988    6064    1919    3915
CTETRA     14375       1    3296    5997    3153    5998
CTETRA     14376       1    1285     732    1294     733
CTETRA     14377       1    2684     795    6953    4603
CTETRA     14378       1     829    2994    1166    1984
CTETRA     14379       1    1077    1501    1076    1464
CTETRA     14380       1    2825    6045    6044    6120
CTETRA     14381       1    1906    6059    6134    6135
CTETRA     14382       1    2994    1984    1469    1985
CTETRA     14383       1    3070    4574    4614    4575
CTETRA     14384       1    4230     826    4237    4229
CTETRA     14385       1    4102    5969    6044    6045
CTETRA     14386       1     774    1702    1674     775
CTETRA     14387       1    4106    1972    1514    2806
CTETRA     14388       1    2473    5928    5929    5853
CTETRA     14389       1     928    4229    2982    4236
CTETRA     14390       1    2690    2907    1968    1950
CTETRA     14391       1    1511    2744    1981    1980
CTETRA     14392       1    4107    4036    3863    2566
CTETRA     14393       1     317    1305     923     278
CTETRA     14394       1    3703    4415    2868     819
CTETRA     14395       1    1395    6061    6060    6136
CTETRA     14396       1    2879    5923    5924    5848
CTETRA     14397       1    1112    2560    2332    2409
CTETRA     14398       1    2927    5991    6927    6926
CTETRA     14399       1    5984    2891    1906    5983
CTETRA     14400       1    2249    4434    4438    4437
CTETRA     14401       1    2519    2521    2384    2522
CTETRA     14402       1     158     132     658    4026
CTETRA     14403       1    2761    1950    2690    1512
CTETRA     14404       1     791    5893    5892    5968
CTETRA     14405       1    2806    4074    4106    1972
CTETRA     14406       1    1763    2464    1971     169
CTETRA     14407       1    3769    6129    6205    6130
CTETRA     14408       1    4237     826    6809     928
CTETRA     14409       1    2509    2529    2532    2512
CTETRA     14410       1    1506     792    6948    4688
CTETRA     14411       1    2680    2595    4777    4787
CTETRA     14412       1    1971    2423     169    2464
CTETRA     14413       1    1375    1465    1076    1464
CTETRA     14414       1     850     316     965     916
CTETRA     14415       1    2462     795     793     794
CTETRA     14416       1    6717     134    6716    6641
CTETRA     14417       1    1290    3362    1943    3487
CTETRA     14418       1    1906    6060    6059    6135
CTETRA     14419       1     720    1725    1225      36
CTETRA     14420       1    1250    2333    1253    1252
CTETRA     14421       1    3815     707    2797    1251
CTETRA     14422       1     641    6640    6641    6565
CTETRA     14423       1    3746    5978    5977    6053
CTETRA     14424       1    2836    4056    2512    2833
CTETRA     14425       1    3070    2033    2079    4575
CTETRA     14426       1    2443    5829    5905    5830
CTETRA     14427       1    2916     709    2917     708
CTETRA     14428       1    1640    1253    2798    2715
CTETRA     14429       1    1880    4003    2974    2977
CTETRA     14430       1    2801    6132    6208    6133
CTETRA     14431       1    3374    3370    2018    4108
CTETRA     14432       1    3496    4029    2758    4035
CTETRA     14433       1    1640    2774    2798    1619
CTETRA     14434       1    1640     708    2798    2774
CTETRA     14435       1    1640    2798     708    2715
CTETRA     14436       1    3986    5981    6056    6057
CTETRA     14437       1    3767    6055    6131    6056
CTETRA     14438       1    4101    4622    4623    4620
CTETRA     14439       1    3768    6054    6053    6129
CTETRA     14440       1     872     497     717     871
CTETRA     14441       1    1505     792    1908     831
CTETRA     14442       1    4081    5831    5906    5907
CTETRA     14443       1     891    4694    4693    4743
CTETRA     14444       1    1862    1886    1889    1863
CTETRA     14445       1     489    1871    1802    1866
CTETRA     14446       1    2368     846     801    1646
CTETRA     14447       1    4093    5981    5905    5980
CTETRA     14448       1    1799    3071    1645    3327
CTETRA     14449       1     149     294     241    4949
CTETRA     14450       1    4003    2977    4107    4109
CTETRA     14451       1     872    1323     835    1719
CTETRA     14452       1     661     669     768     643
CTETRA     14453       1     794    6951     795    4303
CTETRA     14454       1    2150    4433    4445    4434
CTETRA     14455       1    4093    5906    5981    5982
CTETRA     14456       1    1337    2472    1339    2558
CTETRA     14457       1    1624    2393    2714    2713
CTETRA     14458       1    1592    5617    5541    5616
CTETRA     14459       1    6064    3408    3915    6065
CTETRA     14460       1    2703    2679    2681    2702
CTETRA     14461       1    3674    4084     607     642
CTETRA     14462       1    1267    2703    2681    2476
CTETRA     14463       1    2703    2706    2681    2679
CTETRA     14464       1    2102     413    2076    2921
CTETRA     14465       1    2838    4558    4561    4559
CTETRA     14466       1     501    2559    1538    1268
CTETRA     14467       1    2976    3863    4107    4036
CTETRA     14468       1    3101    1060    1061    1415
CTETRA     14469       1     401     403    4768    4776
CTETRA     14470       1    1982    4097    2935    3688
CTETRA     14471       1    4110    3780    3343    3730
CTETRA     14472       1    4061    6049    6048    6124
CTETRA     14473       1    3984    6057    6133    6058
CTETRA     14474       1    2683    6950    2213    6951
CTETRA     14475       1    2176    6637    6561    6636
CTETRA     14476       1    4596    2593    4302    4301
CTETRA     14477       1    2953    4963    3065    3396
CTETRA     14478       1    1320    1910    1754    1464
CTETRA     14479       1    1008     413    4360    4365
CTETRA     14480       1    4295    3973    3622    4700
CTETRA     14481       1    1131    1130    1000     994
CTETRA     14482       1     468    1070     469     429
CTETRA     14483       1     558     868     425    1041
CTETRA     14484       1     988    2024     570    2147
CTETRA     14485       1     569    2147    1890    2145
CTETRA     14486       1    2706     402    2680    2708
CTETRA     14487       1    2085    5755    5754    5830
CTETRA     14488       1    2867    3089    4455    2866
CTETRA     14489       1    3171    6635    6711    6636
CTETRA     14490       1    5807    4111    4112    5806
CTETRA     14491       1    3278    3755    2771    3711
CTETRA     14492       1     273    1121     275     543
CTETRA     14493       1     764     572    2790     514
CTETRA     14494       1    4082    5971    5970    6046
CTETRA     14495       1     562    1462    1352    1463
CTETRA     14496       1     557     559    1352     562
CTETRA     14497       1    3017    3305    3264    3187
CTETRA     14498       1    1394    6062    6061    6137
CTETRA     14499       1    4055    5920    5845    5844
CTETRA     14500       1    1191    3017    2937     592
CTETRA     14501       1    1188    3246    1194    1723
CTETRA     14502       1    3375    5135    2385    2248
CTETRA     14503       1    1008     413    4352    4360
CTETRA     14504       1    3018    1194    3128    3303
CTETRA     14505       1    4113    5695    5696    5620
CTETRA     14506       1    3017     592    3264    3303
CTETRA     14507       1     935    6544    6545    6469
CTETRA     14508       1     392    5105    5100    5103
CTETRA     14509       1    3910    4476    4496    4497
CTETRA     14510       1    3017    3303    2937     592
CTETRA     14511       1    1102    3020    2479    2657
CTETRA     14512       1    2479    3020    3098    3095
CTETRA     14513       1    2020    5819    5743    5818
CTETRA     14514       1    2246    6044    5969    5968
CTETRA     14515       1     554    1961    3758    3856
CTETRA     14516       1     452     462     546     453
CTETRA     14517       1    3887    5880    5805    5804
CTETRA     14518       1    4079    5977    5976    6052
CTETRA     14519       1    4016     541     538      75
CTETRA     14520       1    4089    6051    6126    6127
CTETRA     14521       1    1223    1335    2722     431
CTETRA     14522       1    2079    4596    1686    4597
CTETRA     14523       1    3999    6051    5975    6050
CTETRA     14524       1    3912    2751    3911    3417
CTETRA     14525       1    3912    3012    2586    4021
CTETRA     14526       1    2538    2595    4786    2594
CTETRA     14527       1    3912    3911    4021    3417
CTETRA     14528       1    6622    3141    6623    6698
CTETRA     14529       1    2049    5899    5974    5975
CTETRA     14530       1    3912    3683    2586    2752
CTETRA     14531       1    3649    1563    3070    4614
CTETRA     14532       1    3912    3683    3981    3417
CTETRA     14533       1     177    2730     300     178
CTETRA     14534       1     935    6619    6620    6544
CTETRA     14535       1    5746    3343    2030    5821
CTETRA     14536       1     275     314     178    2732
CTETRA     14537       1    4082    5972    5971    6047
CTETRA     14538       1     178     314     176     177
CTETRA     14539       1    2399    1601    4030    3474
CTETRA     14540       1    3350    5898    5974    5899
CTETRA     14541       1    3870    5972    5897    5896
CTETRA     14542       1    3350    5898    5973    5974
CTETRA     14543       1    2087    3942    5903    3746
CTETRA     14544       1     275     276    2729    2140
CTETRA     14545       1    3915    5989    5913    5988
CTETRA     14546       1    3915    5989    5988    6064
CTETRA     14547       1     177     301     300    2730
CTETRA     14548       1    1631    1648    1018    1647
CTETRA     14549       1    5478    3625    5403    2921
CTETRA     14550       1    2010    2482    2007    4077
CTETRA     14551       1    1506    4666    1504    4687
CTETRA     14552       1    1647    1631    3211    3212
CTETRA     14553       1    5062    2425    5050    2426
CTETRA     14554       1    2184    5478    3625    5403
CTETRA     14555       1    1633    3072    1630    1631
CTETRA     14556       1    3339    3265    4114    3336
CTETRA     14557       1    1008    4352    3203    4351
CTETRA     14558       1    3986    6057    6056    6132
CTETRA     14559       1    4054    4055    2814    3798
CTETRA     14560       1    1631    1630    2749    3072
CTETRA     14561       1    4115    3203    2184    3625
CTETRA     14562       1    3625    1008    3891    3203
CTETRA     14563       1    4098    5982    6057    6058
CTETRA     14564       1    2034    4301    2593    4596
CTETRA     14565       1    5980    5979    3946    6055
CTETRA     14566       1    3911    1631    1632    1630
CTETRA     14567       1    1907    5986    5985    6061
CTETRA     14568       1    3212    3211    3012    3911
CTETRA     14569       1    1625    1808    1776    4071
CTETRA     14570       1    1919    5987    6063    5988
CTETRA     14571       1    5692    5693    4105    5617
CTETRA     14572       1    1913    5911    5986    5987
CTETRA     14573       1     465    1100    1199    1353
CTETRA     14574       1    3509    2282    1323    3036
CTETRA     14575       1    1917    5912    5987    5988
CTETRA     14576       1     785     786    4698    2142
CTETRA     14577       1    2086    5676    5752    5677
CTETRA     14578       1     602     837    1322     985
CTETRA     14579       1    1776    1808    2268    1795
CTETRA     14580       1    2282    3509    1379    3327
CTETRA     14581       1    6054    3987    3746    5979
CTETRA     14582       1    3769    6055    6054    6130
CTETRA     14583       1    2934    4064    3975     106
CTETRA     14584       1    3024    2469     486    2613
CTETRA     14585       1    2251     534    2097    2252
CTETRA     14586       1    2934    2935     415     106
CTETRA     14587       1    1614    3475    2343    3469
CTETRA     14588       1    6054    3746    3768    6053
CTETRA     14589       1    3682    6068    2587    6069
CTETRA     14590       1    2030    5822    5898    5823
CTETRA     14591       1    1297    2673    1414     769
CTETRA     14592       1    2247    2277     920     606
CTETRA     14593       1    1350    1351    1408    1411
CTETRA     14594       1    4093    5982    5907    5906
CTETRA     14595       1    2683    4084    6950     794
CTETRA     14596       1     644    4562    4563    4561
CTETRA     14597       1    3070    4575    2079    4597
CTETRA     14598       1     867     868     870    1669
CTETRA     14599       1     661     662     643     865
CTETRA     14600       1     562     558     559    1724
CTETRA     14601       1    1366    4703    3326    4702
CTETRA     14602       1    1297    2673    1973    2670
CTETRA     14603       1    6370    6445    6369    3005
CTETRA     14604       1    4098    6058    5983    5982
CTETRA     14605       1     564    1463    2607    1462
CTETRA     14606       1    2271    2278    3652    3378
CTETRA     14607       1    4027    2847    3528    4061
CTETRA     14608       1    4027    3528    2847    2827
CTETRA     14609       1    3782    5270    5286    5287
CTETRA     14610       1    5980    6056    3986    5981
CTETRA     14611       1    5455    2251    5530    1366
CTETRA     14612       1    2304    5755    5830    5831
CTETRA     14613       1    2032    2034    4576    4300
CTETRA     14614       1    2401    6594    6519    6518
CTETRA     14615       1    4027    2827    4061    6122
CTETRA     14616       1    4098    5907    5982    5983
CTETRA     14617       1    4027    4061    6123    6122
CTETRA     14618       1    4027    6123    4061    6048
CTETRA     14619       1    4102    5970    5969    6045
CTETRA     14620       1    3526    3528    4061    3555
CTETRA     14621       1    3528    4061    3555    4027
CTETRA     14622       1    1366    4712     532    5455
CTETRA     14623       1    2178    5888    5813    5812
CTETRA     14624       1    1982    3688    1840    4066
CTETRA     14625       1    6048    3555    4061    4027
CTETRA     14626       1    3024    2639    3646    3648
CTETRA     14627       1    2621    2620    5733    2622
CTETRA     14628       1    3032    2639    3024    3025
CTETRA     14629       1    3555    5973    6049    5974
CTETRA     14630       1    1982    1795    2268    4097
CTETRA     14631       1    5900    5975    2049    1747
CTETRA     14632       1    3502    3513    2228    4116
CTETRA     14633       1    1873    1924    1770    2723
CTETRA     14634       1    3915    3409    5990    6065
CTETRA     14635       1    3024    3434    3646    2639
CTETRA     14636       1     683     685     691    1422
CTETRA     14637       1    4043    5916    6928    6927
CTETRA     14638       1    1366     785    4702    3326
CTETRA     14639       1     404    5759    5834    5835
CTETRA     14640       1    1366    4712    5456    4707
CTETRA     14641       1    3915    5990    5914    5989
CTETRA     14642       1    1640    1253    1619    2798
CTETRA     14643       1     281    1942    1425    1422
CTETRA     14644       1    1379    3509    3328    3327
CTETRA     14645       1    1232    1233    1386    1309
CTETRA     14646       1     702     705    1597    2499
CTETRA     14647       1    1965     706    1418    1513
CTETRA     14648       1    2501    4117    2010    3810
CTETRA     14649       1    1978    2690    2907    3226
CTETRA     14650       1    3432     170    1971    2423
CTETRA     14651       1    1747    5901    5825    5900
CTETRA     14652       1    6686     538    6761    6685
CTETRA     14653       1    3740    4471    4472    4493
CTETRA     14654       1    1308    2499    1305    3124
CTETRA     14655       1     755     508    4757    4749
CTETRA     14656       1    1960    1663    3212    3011
CTETRA     14657       1    1960    3212    3211    3011
CTETRA     14658       1     554     544    1653     553
CTETRA     14659       1    1588    1589    1378    1377
CTETRA     14660       1     539     541     631     540
CTETRA     14661       1     554    3713    3797    3758
CTETRA     14662       1     922    1599    1011    1595
CTETRA     14663       1    1305    1814     923    1308
CTETRA     14664       1      15      89     234      92
CTETRA     14665       1    1961    3758    3595    1384
CTETRA     14666       1    1407    5986    6062    5987
CTETRA     14667       1    2594     793    4780     794
CTETRA     14668       1    5765    6929    3460    1594
CTETRA     14669       1    1234    1309    1308    1307
CTETRA     14670       1    2329    3596    1961    1656
CTETRA     14671       1    2054    1434    2896    2230
CTETRA     14672       1    1549    2389    6304    4012
CTETRA     14673       1    1700    3488    1357    1699
CTETRA     14674       1    3343    5745    5820    5821
CTETRA     14675       1    3892    3343    5747    5671
CTETRA     14676       1    4117    2726    2125    2126
CTETRA     14677       1    3870    5896    5971    5972
CTETRA     14678       1    1523    2108    5592    5593
CTETRA     14679       1    2487     657     656     659
CTETRA     14680       1    2896    2054    2487    2057
CTETRA     14681       1     791    5969    5893    5968
CTETRA     14682       1    2055    2489    2487     659
CTETRA     14683       1    3502    1826    3327    3505
CTETRA     14684       1    6380    1550    1549    6381
CTETRA     14685       1    2617    5221    5283    5222
CTETRA     14686       1    1960    2329    1385    1961
CTETRA     14687       1     712    6525    6526    6450
CTETRA     14688       1    2329    4118    3597    2333
CTETRA     14689       1     670    2434    1964    2257
CTETRA     14690       1     888    1019    1565     897
CTETRA     14691       1     624    1304    2426    5051
CTETRA     14692       1    1234    1308     923    1746
CTETRA     14693       1    1259    1650    1200    3295
CTETRA     14694       1    2279    6300    6224    6299
CTETRA     14695       1     539     623     540     624
CTETRA     14696       1    2616    5220    6895    6896
CTETRA     14697       1     708    2798    2774    2916
CTETRA     14698       1    1829    1812    1825     766
CTETRA     14699       1    2798     707     708    2715
CTETRA     14700       1    3265    4553    4295    3522
CTETRA     14701       1    5983    2891    4076    5984
CTETRA     14702       1    4089    3604    6127    6202
CTETRA     14703       1    1640    2786     708    2774
CTETRA     14704       1    2443    5906    5830    5905
CTETRA     14705       1    1520    1885    2696    1812
CTETRA     14706       1    1513    2761    1951    2917
CTETRA     14707       1     620     320    1418     621
CTETRA     14708       1    4079    5976    6051    6052
CTETRA     14709       1    3999    5976    5975    6051
CTETRA     14710       1    2288    1424    1511     958
CTETRA     14711       1    3419    3856    3271    1685
CTETRA     14712       1    1600    2311    1602    1334
CTETRA     14713       1    2483    1856    2969    2968
CTETRA     14714       1    3992    3963    3871    3177
CTETRA     14715       1    2141    3143    4699    4694
CTETRA     14716       1    1907    5910    5909    5985
CTETRA     14717       1    2482    2480    2080    2081
CTETRA     14718       1    1917    5913    5912    5988
CTETRA     14719       1    2480    3707    2081    3007
CTETRA     14720       1    1913    5911    5910    5986
CTETRA     14721       1    2481    3699    2081    2482
CTETRA     14722       1     980    5246    5232    5231
CTETRA     14723       1    2927    2893    5916    5991
CTETRA     14724       1    1579    1779    3008    1536
CTETRA     14725       1    3905    5837    5912    5913
CTETRA     14726       1     405    5834    5909    5910
CTETRA     14727       1    2701    4774    2682    4785
CTETRA     14728       1    2501    2325    3810    2010
CTETRA     14729       1    1377    3509    3511    3328
CTETRA     14730       1    3393    6603    6528    6527
CTETRA     14731       1    2077     402    4767    4775
CTETRA     14732       1    4093    5906    5905    5981
CTETRA     14733       1     623     624    2426    5064
CTETRA     14734       1    3174    3655    5204    5208
CTETRA     14735       1    3942    3946    5980    5979
CTETRA     14736       1     215     418     419     230
CTETRA     14737       1     775    1732    2229     777
CTETRA     14738       1    1829    1798    1885     749
CTETRA     14739       1    3154    1426    2535    2990
CTETRA     14740       1    1673    1636    2591    2516
CTETRA     14741       1     980    5246    5231    5245
CTETRA     14742       1    2016    2393    4684    4287
CTETRA     14743       1    1441    1927    1436    2583
CTETRA     14744       1    1434    2349    2353    2352
CTETRA     14745       1    3154    3066    1426    2990
CTETRA     14746       1    2204    4288    3088    2393
CTETRA     14747       1    3907    2192    3387    3855
CTETRA     14748       1    2608    1735    2614    3053
CTETRA     14749       1    5839    5915    3906    3460
CTETRA     14750       1    6185    2716    3701     336
CTETRA     14751       1    2608    2591    2665    1638
CTETRA     14752       1    2692    5197    5193    5194
CTETRA     14753       1    3285    4434    4282    4281
CTETRA     14754       1    3650    4723    4716    3445
CTETRA     14755       1    3409    6927    5915    5990
CTETRA     14756       1    2161    2429    2740    2936
CTETRA     14757       1    3108    2214    1853    3107
CTETRA     14758       1    3107    1854    1868    1853
CTETRA     14759       1    3794    5891    5967    5892
CTETRA     14760       1    3942    5904    5903    5979
CTETRA     14761       1    3987    5979    6054    6055
CTETRA     14762       1     910    4736    4720    4719
CTETRA     14763       1    3942    5903    5978    5979
CTETRA     14764       1    3563    3530    3888    3107
CTETRA     14765       1    3907    5891    2192    3923
CTETRA     14766       1    3626    3999    6050    6051
CTETRA     14767       1    3460    5839    5915    5840
CTETRA     14768       1    4079    1747    3999    5976
CTETRA     14769       1    4049    1868    3564    3107
CTETRA     14770       1    2518    3563    3107    3333
CTETRA     14771       1    2087    5827    5902    5903
CTETRA     14772       1    2383    2531    2448    2532
CTETRA     14773       1    1747    5901    5900    5976
CTETRA     14774       1    1436    2521    2582    2365
CTETRA     14775       1    2383    2365    2371    2447
CTETRA     14776       1    3170    5761    5760    5836
CTETRA     14777       1    4786    2538    4787    2595
CTETRA     14778       1    3190    2813    4592    4593
CTETRA     14779       1    4119    5767    5843    5768
CTETRA     14780       1    2592    1636    1081    1639
CTETRA     14781       1    1436    2534    2521    2352
CTETRA     14782       1    1434    3668    2896    2230
CTETRA     14783       1    5897    3870    5896    5821
CTETRA     14784       1    1538    1536    3366    3520
CTETRA     14785       1    5972    5973    3870    5897
CTETRA     14786       1     952    3111    4681    3642
CTETRA     14787       1    3543    5823    5898    5899
CTETRA     14788       1    2334    1435    2383    2447
CTETRA     14789       1    2608    1732    2591    2614
CTETRA     14790       1    3350    5898    5897    5973
CTETRA     14791       1    2032    2726    4618    2027
CTETRA     14792       1    3067     477    3950    3754
CTETRA     14793       1    2049    5975    5900    5899
CTETRA     14794       1     925    1531    1532    1928
CTETRA     14795       1    2192      57    2191    5741
CTETRA     14796       1     780    1272     781    1275
CTETRA     14797       1     951    3313     952    5394
CTETRA     14798       1    2085    5829    5753    5828
CTETRA     14799       1    3425    3784    1150    1155
CTETRA     14800       1    2087    5829    5828    5904
CTETRA     14801       1     898    5613    5688    5689
CTETRA     14802       1    2881    1155    1152    1528
CTETRA     14803       1    2443    3942    5904    2087
CTETRA     14804       1    1135    2625    2546    2530
CTETRA     14805       1    3139    5894    5970    5895
CTETRA     14806       1    2898    2779    1918    2782
CTETRA     14807       1     951     952    3111    4682
CTETRA     14808       1     953    5827    5826    5902
CTETRA     14809       1    3342    5819    5894    5895
CTETRA     14810       1    5894     791    3387    3342
CTETRA     14811       1    2742    1916    2743    3546
CTETRA     14812       1    3356    3546    1916    3549
CTETRA     14813       1    3140    4607    4610    4606
CTETRA     14814       1    1240    2724    1242    3936
CTETRA     14815       1     986    1048    1047    1748
CTETRA     14816       1    2175    3828    1443    4060
CTETRA     14817       1    1399    2174    3661    2175
CTETRA     14818       1    1398     592    1851    3298
CTETRA     14819       1    3977     952    3285    3642
CTETRA     14820       1    1504    2540    1908    4687
CTETRA     14821       1    2174    4060    1443    3298
CTETRA     14822       1    3409    6928    5915    6927
CTETRA     14823       1    3906    5838    5913    5914
CTETRA     14824       1    3659    3828    2175    3660
CTETRA     14825       1    2192    3934    5815    2191
CTETRA     14826       1    1446    3660    2175    3661
CTETRA     14827       1     867     869     355     870
CTETRA     14828       1    3987    3986    6055    3767
CTETRA     14829       1    1913    5912    5911    5987
CTETRA     14830       1    2764    3163    1959    2575
CTETRA     14831       1    2012    1020    1558    2014
CTETRA     14832       1    2845     202    2855     909
CTETRA     14833       1     402    4775    2680    4777
CTETRA     14834       1     405    5835    5910    5911
CTETRA     14835       1     633    2013    1558    1669
CTETRA     14836       1    3968    5748    5823    5824
CTETRA     14837       1    4120    4609     372    4608
CTETRA     14838       1     946     903     948     942
CTETRA     14839       1    4079    5901    5976    5977
CTETRA     14840       1     946     947    2060     942
CTETRA     14841       1    1503    1506    2538    1504
CTETRA     14842       1    2394    2395    3018    2457
CTETRA     14843       1    4700    2828    2822    4294
CTETRA     14844       1     946     867     355     947
CTETRA     14845       1    3507    3254    5147    4885
CTETRA     14846       1    1714    1752    1715    2630
CTETRA     14847       1    1157    1721    1184    1212
CTETRA     14848       1    2049    3543    3350    5899
CTETRA     14849       1    2080    2032    2034    2033
CTETRA     14850       1    3455    3484    3892    3632
CTETRA     14851       1    3543    5824    5823    5899
CTETRA     14852       1    4121    2153    3271    3384
CTETRA     14853       1    3893    5515    5591    5516
CTETRA     14854       1    3070    2079    2466    4597
CTETRA     14855       1    1157    2643    1721    1212
CTETRA     14856       1     891    4701    4693    4694
CTETRA     14857       1    1187    1721    1720    1723
CTETRA     14858       1    2229    2231    3067    2230
CTETRA     14859       1    2342    2304    4081    2303
CTETRA     14860       1    3532    3255    4773    4782
CTETRA     14861       1    4076    5834    5833    5909
CTETRA     14862       1    2334    2335    1435    2447
CTETRA     14863       1    1294    1290    1296    2661
CTETRA     14864       1    3006    5305    5300    3112
CTETRA     14865       1    1813     275     314     178
CTETRA     14866       1    2663    2377    4122    2489
CTETRA     14867       1    2641    1105    3026    1894
CTETRA     14868       1    2402     508     297     299
CTETRA     14869       1    2443    5831    5830    5906
CTETRA     14870       1    2679    2580    2538    2595
CTETRA     14871       1    2192    5740    5816    5741
CTETRA     14872       1    4081    5832    5831    5907
CTETRA     14873       1     433    1101     431    1791
CTETRA     14874       1    3905    5838    5837    5913
CTETRA     14875       1    1898    1246    2722    2461
CTETRA     14876       1     405    5836    5835    5911
CTETRA     14877       1    2085    5754    5753    5829
CTETRA     14878       1    3905    5762    5837    5838
CTETRA     14879       1    1594    6931    5691    5616
CTETRA     14880       1    1772    1784    2453    2463
CTETRA     14881       1    1335    1246    1300    1336
CTETRA     14882       1    3942    5904    5979    5980
CTETRA     14883       1    3681    1245    2162    1336
CTETRA     14884       1    1336    1246    3681    1245
CTETRA     14885       1    2594     794    4780    6950
CTETRA     14886       1    6049    6048    3555    4061
CTETRA     14887       1    2796    3255    2594    2593
CTETRA     14888       1    1245    3092    1223    1279
CTETRA     14889       1    2087    5828    5903    5904
CTETRA     14890       1    2443    3942    4093    5905
CTETRA     14891       1    1278    3860    1245    1279
CTETRA     14892       1    1245    1223    1335    2722
CTETRA     14893       1    2231     776    4123    3729
CTETRA     14894       1    2251    5456    5457    4707
CTETRA     14895       1    3936    4043    3427    3409
CTETRA     14896       1    1699     776    2231    3729
CTETRA     14897       1    2231    3067    2230    4124
CTETRA     14898       1    2054    3379    1699    2231
CTETRA     14899       1    2608    2591    3068    2665
CTETRA     14900       1     373    2855    5098     127
CTETRA     14901       1    2303    5758    5757    5833
CTETRA     14902       1     373    5048      49    5097
CTETRA     14903       1    5907    4081    5832    4076
CTETRA     14904       1    1686    2395    4600    4603
CTETRA     14905       1    2077    4766    2701    4775
CTETRA     14906       1    1700    2662    1356    3488
CTETRA     14907       1    4117    2125    3522    2124
CTETRA     14908       1    1227    2100    1228    3258
CTETRA     14909       1    2229    1428    3067    3066
CTETRA     14910       1    1699    3729    2231    3379
CTETRA     14911       1     874     903     905     906
CTETRA     14912       1     662    1062    1298     559
CTETRA     14913       1    1131    1130     994    2031
CTETRA     14914       1    3642    3312    4125    4126
CTETRA     14915       1    1736    3121    2640    2641
CTETRA     14916       1    4043    6927    2927    5916
CTETRA     14917       1     873    5687    5686    5762
CTETRA     14918       1    2360    2363    2381    2361
CTETRA     14919       1    3460    5764    5839    5840
CTETRA     14920       1    1610    5690    5615    5614
CTETRA     14921       1    1103     996     449     773
CTETRA     14922       1    2024    3278    2771    3711
CTETRA     14923       1    2670    2277    1298    2247
CTETRA     14924       1    3461    5764    5689    5688
CTETRA     14925       1    5689    1593    5765    5764
CTETRA     14926       1     633    2013    1669     868
CTETRA     14927       1    2682    4784    2713    4668
CTETRA     14928       1    3461    5839    5764    5763
CTETRA     14929       1     560    2358     962     564
CTETRA     14930       1    2192      57    3387    3720
CTETRA     14931       1    4079    2087    5902    3746
CTETRA     14932       1    5967    3794    5892    5968
CTETRA     14933       1    4027    5973    3555    3870
CTETRA     14934       1     468     466    1072    1015
CTETRA     14935       1    2082    2034    4300    2593
CTETRA     14936       1    2012    1071    1558    1020
CTETRA     14937       1    3057    4612    1563    4611
CTETRA     14938       1    2456    3070    2033    2079
CTETRA     14939       1    2593     793    4302    4781
CTETRA     14940       1    2032    4618    2726    4299
CTETRA     14941       1    1103    1160    1312    1106
CTETRA     14942       1    2274    2277    2272    2846
CTETRA     14943       1    3342    5820    5819    5895
CTETRA     14944       1    3342    5819    5820    5744
CTETRA     14945       1    3387    3720    1150    2192
CTETRA     14946       1    1974     749     750    1977
CTETRA     14947       1    5839    3906    5914    5838
CTETRA     14948       1    1117    1761    1758    1757
CTETRA     14949       1    3498    2387    3470    2360
CTETRA     14950       1    3926     811    2932    3652
CTETRA     14951       1    3539    3477    2015    4677
CTETRA     14952       1    2225     611    4739    4750
CTETRA     14953       1    2274    2278    3652    3501
CTETRA     14954       1    1974    1975     750    1299
CTETRA     14955       1    2273    2274    2272    1139
CTETRA     14956       1    1902    3942    3747    3746
CTETRA     14957       1    3730    5670    5669    5745
CTETRA     14958       1    3730    5746    5671    5670
CTETRA     14959       1    3246    2111    3877    3803
CTETRA     14960       1    5747    3343    2030    5746
CTETRA     14961       1    2271    4041    3378    3652
CTETRA     14962       1     661     767     865     769
CTETRA     14963       1    3061    3672    1665    1666
CTETRA     14964       1    1680    2525    2524    3822
CTETRA     14965       1     953    5826    5901    5902
CTETRA     14966       1    3522    4114    3265    3810
CTETRA     14967       1    2033    2027    1563    2968
CTETRA     14968       1     742    6542    6541    6617
CTETRA     14969       1    4027    4061    2827    2847
CTETRA     14970       1    2126    3527    4760    4759
CTETRA     14971       1    5896    3139    5895    1583
CTETRA     14972       1    3075    5750    5825    5826
CTETRA     14973       1    2006    1666    4004    3672
CTETRA     14974       1    2008    4624    2125    4617
CTETRA     14975       1    1666    4004    3672    2525
CTETRA     14976       1    2075    5755    5756    5680
CTETRA     14977       1    3111    4722    4675    4674
CTETRA     14978       1    3461    5763    5838    5839
CTETRA     14979       1    3073    5448    5449    4568
CTETRA     14980       1    2525    1666    3087    2493
CTETRA     14981       1    2525    1666    4004    3087
CTETRA     14982       1    1496    1634    1399    1849
CTETRA     14983       1    1667    2494    3060    1821
CTETRA     14984       1    3069    4555    4566    4558
CTETRA     14985       1     644    4558    4567    4561
CTETRA     14986       1    3751     891     892    3143
CTETRA     14987       1    1351    1841    1689    1776
CTETRA     14988       1     508    4757    4749    4769
CTETRA     14989       1     649    2303    5683    2253
CTETRA     14990       1    2525    2524    3822    3672
CTETRA     14991       1    3905    5837    5836    5912
CTETRA     14992       1    3170    5836    5760    5835
CTETRA     14993       1     298    4748    4747    4770
CTETRA     14994       1    3461    5688    5763    5764
CTETRA     14995       1    1026    1275    1272    1244
CTETRA     14996       1    1579    2914    1536    3366
CTETRA     14997       1    2057    3197    2349    2350
CTETRA     14998       1    3265    2210    4622    2008
CTETRA     14999       1    3987    3769    3767    6055
CTETRA     15000       1    5671    3892    5672    5747
CTETRA     15001       1    2528    1927    2532    2531
CTETRA     15002       1    1939    2242    2821    1938
CTETRA     15003       1    1939    1940    1283    3059
CTETRA     15004       1    2334    2383    2448    2447
CTETRA     15005       1    2334    2336    2447    2449
CTETRA     15006       1    5609    5610    5685    3390
CTETRA     15007       1    3433    2242    2839    2834
CTETRA     15008       1     524    5535     172    5460
CTETRA     15009       1     509     403    4771    4768
CTETRA     15010       1    2252    5605    5680    5681
CTETRA     15011       1    3632    2148    5522    2187
CTETRA     15012       1    2303    5682    5757    5758
CTETRA     15013       1    1937    3433    2242    1938
CTETRA     15014       1    2149     493    4692    4741
CTETRA     15015       1    1925    1672    1671    2377
CTETRA     15016       1    4081    4076    2303    5832
CTETRA     15017       1    1526    2383    2531    2448
CTETRA     15018       1    1526    2821    3433    1938
CTETRA     15019       1     522     764     572     571
CTETRA     15020       1    4076    5833    5908    5909
CTETRA     15021       1    3941    2722    1248    2723
CTETRA     15022       1    3481    3906    1917    3915
CTETRA     15023       1    1610    1593     898    1609
CTETRA     15024       1    5608    5609    2253    5533
CTETRA     15025       1    3941    3859    1248    3860
CTETRA     15026       1    1899    2723    2461    1770
CTETRA     15027       1     440    1222    2722    1223
CTETRA     15028       1    3925    5678    5753    5754
CTETRA     15029       1    4081    5757    5756    5832
CTETRA     15030       1    1222    3545     573    3941
CTETRA     15031       1    2226    2796    2462     793
CTETRA     15032       1    3446     318    4734    3177
CTETRA     15033       1    1278    1222    3544    1223
CTETRA     15034       1     163    5462    5463    4737
CTETRA     15035       1    3460    4043    6929    5840
CTETRA     15036       1    2650    1660    2341    1359
CTETRA     15037       1    3314    5543    5468    5467
CTETRA     15038       1    1365    1241    1240     896
CTETRA     15039       1    3460    5765    5764    5840
CTETRA     15040       1     172    5461    4756    4738
CTETRA     15041       1    1797    4454    4447    4446
CTETRA     15042       1    1625    4069    1622    1808
CTETRA     15043       1     649     404    5758    2303
CTETRA     15044       1     363    1363     844    1265
CTETRA     15045       1    2082    3255    2593    4781
CTETRA     15046       1    2086    5677    5752    5753
CTETRA     15047       1    4084    2594    4786    6950
CTETRA     15048       1    2075    5679    5754    5755
CTETRA     15049       1    2077    3448    2701    4766
CTETRA     15050       1    2747    1019     897    1565
CTETRA     15051       1    2342     404     649    2303
CTETRA     15052       1     745     403    3532    4771
CTETRA     15053       1    1035     998    3399    3728
CTETRA     15054       1    5838    5762    3461    3905
CTETRA     15055       1     784     613     612     535
CTETRA     15056       1     998    1001     994     999
CTETRA     15057       1    1000     994     998    1001
CTETRA     15058       1    2929    4894    3673    5091
CTETRA     15059       1    3925    5679    5678    5754
CTETRA     15060       1     998    3840     995    3399
CTETRA     15061       1     493    4692    4742    4693
CTETRA     15062       1     371    5675    5751    5676
CTETRA     15063       1     370    5524    5599    5600
CTETRA     15064       1     998    3840    3728    3449
CTETRA     15065       1     998     977    3840    3449
CTETRA     15066       1     612    5604    5680    5605
CTETRA     15067       1     998     994    3399     995
CTETRA     15068       1    3017    3018    2937    3303
CTETRA     15069       1    2187    5524    5523    5599
CTETRA     15070       1    3075    5750    5749    5825
CTETRA     15071       1     649    5759     404    3390
CTETRA     15072       1    4081    2443    3266    4093
CTETRA     15073       1     370    5674    5675    5599
CTETRA     15074       1    4127    5603    5602    5678
CTETRA     15075       1    2937    2134    1851    2396
CTETRA     15076       1     974    3566     975    3937
CTETRA     15077       1    3992     318    3446    3177
CTETRA     15078       1    1450    2938    1716    2659
CTETRA     15079       1     589    2937    1851     592
CTETRA     15080       1    1859    2497    3311    2167
CTETRA     15081       1     851     289     293     286
CTETRA     15082       1    2796    2594    3707    3708
CTETRA     15083       1    3111    4682    4681    4675
CTETRA     15084       1    2741    2874    4459    4460
CTETRA     15085       1    1594    6930    5691    6931
CTETRA     15086       1    1594    6930    5765    6929
CTETRA     15087       1     974     976    3566     906
CTETRA     15088       1    2207    5672    5747    5748
CTETRA     15089       1    3518    2207    3968    3075
CTETRA     15090       1    1429    1438    1435    1437
CTETRA     15091       1    2690    1981    1978    1980
CTETRA     15092       1    3349    3421    3351    3350
CTETRA     15093       1    3343    5671    5746    5747
CTETRA     15094       1    3968    5748    5747    5823
CTETRA     15095       1    1512    1951    2761    1950
CTETRA     15096       1     370    5525    5524    5600
CTETRA     15097       1    3259    3527     745    3532
CTETRA     15098       1    1951    1966    1950    1512
CTETRA     15099       1    3069    4566    4567    4558
CTETRA     15100       1    2083    3795    3058    4629
CTETRA     15101       1    2087    3746    5903    5902
CTETRA     15102       1     977     974    3742     999
CTETRA     15103       1     994     995     976    2031
CTETRA     15104       1    1513    1965    1512    1418
CTETRA     15105       1    4078    3326    1310    2149
CTETRA     15106       1    2915    2917    1951    3656
CTETRA     15107       1    1310    3326    4691    2149
CTETRA     15108       1    1968    1966    1950    1953
CTETRA     15109       1     855    3448    4766    4763
CTETRA     15110       1    1755    3971    3090    1760
CTETRA     15111       1     485    4752     610     297
CTETRA     15112       1    5610    1331    3390    5609
CTETRA     15113       1    1513    2762    2761    2917
CTETRA     15114       1    2761    2764    3656    2763
CTETRA     15115       1    2761    3656    2764    1950
CTETRA     15116       1    2761    2763    3656    2762
CTETRA     15117       1    3566     976     905     906
CTETRA     15118       1    5529    5604    5528     613
CTETRA     15119       1    2187    5523    5598    5599
CTETRA     15120       1     757     762    1822     972
CTETRA     15121       1    1101    2433    1224    1223
CTETRA     15122       1    2259    5459    5458    5534
CTETRA     15123       1    1364    2794    2795     889
CTETRA     15124       1      38    1223    3695    1280
CTETRA     15125       1    3156     313     583    3282
CTETRA     15126       1    1278    3860    3941    2722
CTETRA     15127       1    4101    4616    3057    4620
CTETRA     15128       1     992    1022    1021    3137
CTETRA     15129       1    1335    3092    1245    1336
CTETRA     15130       1     829     827    2709    1166
CTETRA     15131       1    2085    5754    5829    5830
CTETRA     15132       1    2654    2415    1120    3466
CTETRA     15133       1    3972     372    3140    3308
CTETRA     15134       1    2021    4637    3308    4636
CTETRA     15135       1     906     905     874     976
CTETRA     15136       1     523     524    2225     406
CTETRA     15137       1     992     974     993    3565
CTETRA     15138       1    3090    5543    5618    5619
CTETRA     15139       1    2229    3068    3066    3771
CTETRA     15140       1     318    4753    4734    4746
CTETRA     15141       1    2834    2835    2826    2847
CTETRA     15142       1    3552    3351    3554    3553
CTETRA     15143       1    2023    3731    3849    1535
CTETRA     15144       1    3552    1903    3554    2545
CTETRA     15145       1    2603    1615    2263     677
CTETRA     15146       1    5444    7006    7007    4661
CTETRA     15147       1    3388    5668    5743    5744
CTETRA     15148       1     678     729     682    2317
CTETRA     15149       1    2101    3959     172     918
CTETRA     15150       1    3649    4614    3070    4574
CTETRA     15151       1    2022    4653    4661    4649
CTETRA     15152       1    2163    4607    4635    4636
CTETRA     15153       1    1116    4653    4647    4652
CTETRA     15154       1    2021    4636    4646    4647
CTETRA     15155       1     698    1168    1167    2388
CTETRA     15156       1    2549    2781    1902    2547
CTETRA     15157       1     644    3069    4558    3338
CTETRA     15158       1    2126    4760    3527    4298
CTETRA     15159       1     404    5758    5833    5834
CTETRA     15160       1    2303    5758    5683    5682
CTETRA     15161       1    2767    2601    2766    2317
CTETRA     15162       1    2253    5682    5683    5607
CTETRA     15163       1    1902    3945    1904    3943
CTETRA     15164       1    1903    2550    3554    2545
CTETRA     15165       1    2643    2644    1360    2633
CTETRA     15166       1    1935    1934    1936    1239
CTETRA     15167       1    1730    2658    1723    1752
CTETRA     15168       1    2075    5680    5756    5681
CTETRA     15169       1    2303    5682    5681    5757
CTETRA     15170       1    2259    5458    5457    5533
CTETRA     15171       1    2252    5681    5682    5606
CTETRA     15172       1    2252    5606    5682    5607
CTETRA     15173       1    3642    4680    4681    4282
CTETRA     15174       1    3642    4281    4282    4681
CTETRA     15175       1    4128    4283    4282    4445
CTETRA     15176       1    2659    2658    1723    3964
CTETRA     15177       1    1194    3017    2659    3964
CTETRA     15178       1     371    5600    5675    5676
CTETRA     15179       1    1157    1184    1721    1187
CTETRA     15180       1    1183    3015    1191    1193
CTETRA     15181       1    1859    3311    2450    2675
CTETRA     15182       1    3339    4554    4560    4553
CTETRA     15183       1    1274    1273    1276    1581
CTETRA     15184       1    2740    4129    3664    2936
CTETRA     15185       1    3107    2740    1868    3564
CTETRA     15186       1    3390    5684    5760    5685
CTETRA     15187       1    4033     368    3875    3354
CTETRA     15188       1    1502    6535    6460    6459
CTETRA     15189       1    2925    6530    6531    6455
CTETRA     15190       1    1879    1867    1882    1870
CTETRA     15191       1    1869    1853    1868    1893
CTETRA     15192       1    2214    1869    2740    2429
CTETRA     15193       1    2740    2429    1870    3346
CTETRA     15194       1    1828    6762    5067    5065
CTETRA     15195       1    3899    2957    2392    5129
CTETRA     15196       1    2740    3666    4129    3346
CTETRA     15197       1    2429    2678    4129    2788
CTETRA     15198       1    1904    3947    2831    3943
CTETRA     15199       1    2782    1918    2891    3945
CTETRA     15200       1    1343    2559    1141    1342
CTETRA     15201       1    1363    2399    1601    1955
CTETRA     15202       1    2791    2416    2618    3461
CTETRA     15203       1     842    1831    1660    2416
CTETRA     15204       1    3925    5679    5603    5678
CTETRA     15205       1    2811     535    5453     613
CTETRA     15206       1    2085    2443    5830    5829
CTETRA     15207       1    1332    1613    2901    1601
CTETRA     15208       1    3390    5685    5761    5686
CTETRA     15209       1     623    2426    1828    5063
CTETRA     15210       1     918    5611    5612    5536
CTETRA     15211       1    2399    1601    1955    1230
CTETRA     15212       1    1344    5611    5686    5687
CTETRA     15213       1    2898    2902    2782    1905
CTETRA     15214       1    1524    1523    3388    3302
CTETRA     15215       1    1955     296    1230    2267
CTETRA     15216       1    3342    1583    5820    5895
CTETRA     15217       1    3388    5669    5668    5744
CTETRA     15218       1    5444    4661    7007    4649
CTETRA     15219       1    1612    1600    1334    1616
CTETRA     15220       1    1344    5535    5610    5611
CTETRA     15221       1    2706     403     402    2708
CTETRA     15222       1     759    1262    1235    1260
CTETRA     15223       1    3397     318    3177     496
CTETRA     15224       1     873    5687    5763    5688
CTETRA     15225       1    1266     296    2267    2699
CTETRA     15226       1    1332    1333    2779    2831
CTETRA     15227       1    1579    3366    1536    3008
CTETRA     15228       1    3933    2745    4130    3562
CTETRA     15229       1    2718    2325    2009    3456
CTETRA     15230       1    3230    4131    3795    1541
CTETRA     15231       1    5625    2058    3413    5700
CTETRA     15232       1    1936    1239    1938    1949
CTETRA     15233       1    2553    2893    3682    5993
CTETRA     15234       1    2581    4459    2874    4286
CTETRA     15235       1    6931    1593    1594    5690
CTETRA     15236       1    1592    1611    3459    1594
CTETRA     15237       1    3977    3642    3285    4128
CTETRA     15238       1    3446    4734    4717    4733
CTETRA     15239       1    3215    3216    3217    3991
CTETRA     15240       1    3562    2626    3564    2746
CTETRA     15241       1    5690    1593    1594    5765
CTETRA     15242       1    3562    4049    3564    3563
CTETRA     15243       1    3879    3310    3563    3562
CTETRA     15244       1    3562    3563    3879    4130
CTETRA     15245       1    1236    4132    2739    4055
CTETRA     15246       1    2225    4755    4739    4738
CTETRA     15247       1    1775     583    3329    1776
CTETRA     15248       1     163     918    5538    5537
CTETRA     15249       1    3966    4762    2712    3448
CTETRA     15250       1     297     299    4769    4748
CTETRA     15251       1     297    4752    4748    4749
CTETRA     15252       1    3329     583    4073    1776
CTETRA     15253       1    1935    2390    1936    2391
CTETRA     15254       1    1357    3488    1356    1034
CTETRA     15255       1    1841    4073    3928    3490
CTETRA     15256       1    2608    3068    2229    3771
CTETRA     15257       1    4042    3925    2085    2075
CTETRA     15258       1    2252    5531    5606    5607
CTETRA     15259       1    2008    4101    4622    4623
CTETRA     15260       1    1843    3490    3156     583
CTETRA     15261       1    2075    5680    5679    5755
CTETRA     15262       1     534    5529    5605    5530
CTETRA     15263       1     943     944    5004     931
CTETRA     15264       1     785     786    4697    4698
CTETRA     15265       1     583     586    4073    3490
CTETRA     15266       1    4294    2828    4559    4560
CTETRA     15267       1    2810    5526    5601    5602
CTETRA     15268       1    2561    2624    2507    2506
CTETRA     15269       1    2810    5450    5526    5451
CTETRA     15270       1    4114    3339    3973    3265
CTETRA     15271       1    4127    5601    5677    5602
CTETRA     15272       1    3892    2187    5597    2207
CTETRA     15273       1    3265    4554    4553    4622
CTETRA     15274       1    3344    5520    5595    5596
CTETRA     15275       1    2506    2507    2509    2529
CTETRA     15276       1    1847    2862    3576    2567
CTETRA     15277       1    2691    2623    2579    3144
CTETRA     15278       1    1833    2624    2623    3144
CTETRA     15279       1    2148    5522    5447    5446
CTETRA     15280       1    2863    2567    2507    2520
CTETRA     15281       1    1330    1978    1981    2693
CTETRA     15282       1    3344    3632    5597    3892
CTETRA     15283       1    1330    2565    2691    1981
CTETRA     15284       1    1399    2174    1851     176
CTETRA     15285       1    3073     370    5525    5524
CTETRA     15286       1    3892    5672    5597    5596
CTETRA     15287       1    2207    3968    5748    5747
CTETRA     15288       1    2207    5672    5673    5597
CTETRA     15289       1    4127    5678    5602    5677
CTETRA     15290       1    2207    5597    5673    5598
CTETRA     15291       1    2938    3847    3264    3260
CTETRA     15292       1    1716    3847    1715    1752
CTETRA     15293       1    3959    4736    4755    4737
CTETRA     15294       1    3446    4733    4717    4716
CTETRA     15295       1    2398    5465    5464    5540
CTETRA     15296       1    1610    5614    5689    5690
CTETRA     15297       1    2099    3959     622      94
CTETRA     15298       1     918    5536    5612    5537
CTETRA     15299       1    2937     592     472    1851
CTETRA     15300       1    3015    2134    2937    3018
CTETRA     15301       1    2843     786    2822    4696
CTETRA     15302       1    2811    2838     644    4564
CTETRA     15303       1    2883    3139    4082    3870
CTETRA     15304       1    1677    1472    3015     589
CTETRA     15305       1    3965    3189    3303    3964
CTETRA     15306       1     611    4750    4752    4740
CTETRA     15307       1    2938    2659    3187    3847
CTETRA     15308       1    1703    1465    1484    1433
CTETRA     15309       1    1431    1703    1705    1433
CTETRA     15310       1    3445    4716    3446    4717
CTETRA     15311       1    1705    1433    1704    1431
CTETRA     15312       1    5679    2075    5754    3925
CTETRA     15313       1    1070    1023    1072    1075
CTETRA     15314       1    1480    3997    2820    1481
CTETRA     15315       1     649    5684    5683    5759
CTETRA     15316       1    1703    1464    1483    1465
CTETRA     15317       1     612    5679    5680    5604
CTETRA     15318       1     298    4751    4747    4748
CTETRA     15319       1    1432    1481    3997    1430
CTETRA     15320       1    1344    5687    5612    5611
CTETRA     15321       1    3959    4736    4754    4755
CTETRA     15322       1    1480    1858    2820    3997
CTETRA     15323       1    1344    5686    5610    5685
CTETRA     15324       1    1117    1118    1761    1757
CTETRA     15325       1      94    4750    4754    4751
CTETRA     15326       1    1216    1214    1237    1213
CTETRA     15327       1     784     786    2843     785
CTETRA     15328       1    1240    1241    1118    1119
CTETRA     15329       1     274     276    1141    1142
CTETRA     15330       1    1117    1758    1759    1757
CTETRA     15331       1    1118    1097    4133    1241
CTETRA     15332       1     877    1226    1042    1043
CTETRA     15333       1     493     891    4742     755
CTETRA     15334       1     255     878    3476    1994
CTETRA     15335       1    2756    3737    2977    1679
CTETRA     15336       1    2155    1459    2977    2754
CTETRA     15337       1    1775    1340    2203    3329
CTETRA     15338       1    1678    1697    1680    2492
CTETRA     15339       1    2108    5594    5519    5518
CTETRA     15340       1    1509    3050    2025    3586
CTETRA     15341       1    5668    5669    3388    5593
CTETRA     15342       1    3140    3290    4610    4619
CTETRA     15343       1    3886    3780    2020    3342
CTETRA     15344       1    1446    1849    1911     314
CTETRA     15345       1    1813     314    1911    1849
CTETRA     15346       1     603    1681     985    2524
CTETRA     15347       1    5531    2253    5532    5607
CTETRA     15348       1    2334    2488    1941    2377
CTETRA     15349       1    2303    5832    5757    4081
CTETRA     15350       1    2660    2661    2662    3698
CTETRA     15351       1    2340    2094    2253    4078
CTETRA     15352       1    3326    2149     493    4692
CTETRA     15353       1    1699    3488    1034    3729
CTETRA     15354       1    5604    5605     612    5529
CTETRA     15355       1    2055     659    2486    2489
CTETRA     15356       1    2253    5607    5683    5608
CTETRA     15357       1    2488    2377    2489    1941
CTETRA     15358       1    2055    1700    2487    2489
CTETRA     15359       1    1877    2934    4064    3975
CTETRA     15360       1    1809    1409    1413    1810
CTETRA     15361       1    3731    4557    4638    4644
CTETRA     15362       1    3037    3832    3035    1550
CTETRA     15363       1    2935    1874    1876    2934
CTETRA     15364       1    3352    5442    5517    5518
CTETRA     15365       1    3302    5595    5594    5670
CTETRA     15366       1    3832    3536    3294    3676
CTETRA     15367       1    1683    3181    2492    1895
CTETRA     15368       1    3251    3249    3181    3324
CTETRA     15369       1    2187    5597    5598    5522
CTETRA     15370       1    2170    1410    1895    3324
CTETRA     15371       1    1409    1810    2935    1982
CTETRA     15372       1    1648    1642    1253    2333
CTETRA     15373       1    1253    1626    1252    2333
CTETRA     15374       1     786    4700    4696    4697
CTETRA     15375       1    2875    3832    3294    3676
CTETRA     15376       1    5679     612    5603    5604
CTETRA     15377       1    1620    2786     685    1640
CTETRA     15378       1    1324     500     358    2914
CTETRA     15379       1    3622    3522    4296    4695
CTETRA     15380       1     613    5527    5602    5603
CTETRA     15381       1     535    2843    2822    4710
CTETRA     15382       1    1193    1276    1273    3018
CTETRA     15383       1    1779    2132    2462    3812
CTETRA     15384       1    2326    2718    2500    1818
CTETRA     15385       1     873    5612    5688    5613
CTETRA     15386       1      94    4751     610    4750
CTETRA     15387       1    1856    1192    2965    1277
CTETRA     15388       1    2078    2082    2081    2796
CTETRA     15389       1    5609     649    5608    2253
CTETRA     15390       1    2607    3525     962    3899
CTETRA     15391       1    2607    2957    4134    2392
CTETRA     15392       1    2342    3267    3266    2304
CTETRA     15393       1    2095    2149     485     493
CTETRA     15394       1    2607    2043    2957    3899
CTETRA     15395       1    1292    5197    5154    5155
CTETRA     15396       1    2607     189    4134     192
CTETRA     15397       1    1760    5693    4105    4119
CTETRA     15398       1    3966    3448    4763    4762
CTETRA     15399       1    2607    1462    1463    2043
CTETRA     15400       1    2607     192    4096    1463
CTETRA     15401       1    3831    4011    3832    3676
CTETRA     15402       1     439     571    1873    1222
CTETRA     15403       1    3533    3509    3036    3503
CTETRA     15404       1    2253    5533    5609    1331
CTETRA     15405       1    2461    1898    1897    1770
CTETRA     15406       1    1585    5466    5467    5391
CTETRA     15407       1    5690    1593    1610    6931
CTETRA     15408       1    1664    3061    1665    1666
CTETRA     15409       1    1589    3511    3517    3031
CTETRA     15410       1    3591    1787     973    1784
CTETRA     15411       1     888     887    2794     889
CTETRA     15412       1    3337    3265    4622    4554
CTETRA     15413       1    2750    3683     887    3982
CTETRA     15414       1    3073    2187    5524    5523
CTETRA     15415       1    3832    4011    1548    3676
CTETRA     15416       1    3731    5445    5446    4644
CTETRA     15417       1     884     897     887     895
CTETRA     15418       1     884     758     885     893
CTETRA     15419       1    1600    2399    3474    1601
CTETRA     15420       1    3368    5517    5442    5441
CTETRA     15421       1    3780    1583    3343    3342
CTETRA     15422       1    2794    2586    3683    2752
CTETRA     15423       1     888    2795    2794    2752
CTETRA     15424       1    2794    2795    4135    2586
CTETRA     15425       1    2148    5523    5447    5522
CTETRA     15426       1    2148    2187    5523    5522
CTETRA     15427       1    5449    7012    4562    4568
CTETRA     15428       1    2811    4563    5450    5451
CTETRA     15429       1    1020    1021    3122    3565
CTETRA     15430       1    2399    1601    1230    4030
CTETRA     15431       1    2013     904    2014    2028
CTETRA     15432       1    2012     906     874     976
CTETRA     15433       1    5462    5537     172     163
CTETRA     15434       1    3832    1549    3035    1550
CTETRA     15435       1     990    2502    1000     994
CTETRA     15436       1    1922     606     920    2846
CTETRA     15437       1    1586    6933    6934    5465
CTETRA     15438       1    3119    3122    1023    1969
CTETRA     15439       1     867    2013    1558    2028
CTETRA     15440       1    1071    1967    1020    1023
CTETRA     15441       1    2253    5608    5532    5607
CTETRA     15442       1     534    5531    5530    5606
CTETRA     15443       1    1310    1366    4703    3326
CTETRA     15444       1    2251    2259    4078    1310
CTETRA     15445       1     524    5459    5534    5535
CTETRA     15446       1    2846    2845    2274    1929
CTETRA     15447       1    2014    2012    3565     906
CTETRA     15448       1     677    2603    1615    2601
CTETRA     15449       1    1757    4133    4105    3459
CTETRA     15450       1    1598    5538    5614    5539
CTETRA     15451       1    2259    5458    5459    4706
CTETRA     15452       1     938     202    2846    1929
CTETRA     15453       1    1929    3028    1923     938
CTETRA     15454       1    1337    1203    1339    2472
CTETRA     15455       1     524    4738    4739    4689
CTETRA     15456       1    2225    4750    4739    4755
CTETRA     15457       1     523    5535    1331    1344
CTETRA     15458       1     163    5462    5537    5538
CTETRA     15459       1    2101    2225      94     611
CTETRA     15460       1    1235    1236    3700    2739
CTETRA     15461       1    2780    2602    1904    2830
CTETRA     15462       1    1915    3549    1691    1916
CTETRA     15463       1    2810    5527    5526    5602
CTETRA     15464       1    3338    3339    3337    4554
CTETRA     15465       1    2810    5525    5600    5601
CTETRA     15466       1    1692    2743    3356    3144
CTETRA     15467       1    1920    1616    2705    1921
CTETRA     15468       1    1616    2705    1921    2309
CTETRA     15469       1     849    1861    2167    2497
CTETRA     15470       1    2984    2955    3484    3653
CTETRA     15471       1    1929     193    3131     194
CTETRA     15472       1    1184    1190    1721    1188
CTETRA     15473       1    4120    4609    4637    4638
CTETRA     15474       1    3344    5446    5445    5521
CTETRA     15475       1    1188    1192    3129    2966
CTETRA     15476       1    1708    2643    2644    3607
CTETRA     15477       1    2075    2085    5755    5754
CTETRA     15478       1     786    2142    4701    4698
CTETRA     15479       1    1315    1317     916    1316
CTETRA     15480       1    1144    2792    1156    1143
CTETRA     15481       1    1144    1152     927     926
CTETRA     15482       1    1923    6698    6622    6697
CTETRA     15483       1    3849    5444    5519    5520
CTETRA     15484       1    1929     193     194     195
CTETRA     15485       1    2023    2022    3849    3731
CTETRA     15486       1    5518    5519    2108    5443
CTETRA     15487       1    2450    2651    2675    3311
CTETRA     15488       1    1450    2659    1716    1752
CTETRA     15489       1     696     697    1165    1168
CTETRA     15490       1    3127    6448    6523    6524
CTETRA     15491       1    6224    2574    6149    2279
CTETRA     15492       1    1721    1752    1720    1723
CTETRA     15493       1    1165    1168    1954    1166
CTETRA     15494       1    1049    2845     202    1929
CTETRA     15495       1    5447    4557    7010    4565
CTETRA     15496       1    3386    4120    3731    4638
CTETRA     15497       1    3297    1151    3569    1153
CTETRA     15498       1    3344    5521    5445    5520
CTETRA     15499       1    5519    3849    5520    3302
CTETRA     15500       1    2638    3454    1931    3450
CTETRA     15501       1    2881    3785    1155    1934
CTETRA     15502       1    3246    1187    1722    1723
CTETRA     15503       1    1366    4702     785    4709
CTETRA     15504       1    2450    2675    2651    3451
CTETRA     15505       1    5455    5531    5530    2251
CTETRA     15506       1    2676    3605    2179    3606
CTETRA     15507       1    1331    5535    5534    5610
CTETRA     15508       1    1814     153    3124     214
CTETRA     15509       1    5534    2259    1331    5533
CTETRA     15510       1     524    2225     406    4739
CTETRA     15511       1    2251    2253    2259    5532
CTETRA     15512       1    3124    3126    2464     214
CTETRA     15513       1    3539    3633    3477    4672
CTETRA     15514       1    1596    5540    5615    6932
CTETRA     15515       1    1308    1307     703     155
CTETRA     15516       1     495     496    4747    4753
CTETRA     15517       1    1598    5540    5539    5615
CTETRA     15518       1     304     306    1584    3444
CTETRA     15519       1     304     305     306    3444
CTETRA     15520       1    1307     156    4044     155
CTETRA     15521       1    1598    5539    5614    5615
CTETRA     15522       1    3644    4679    4680    4283
CTETRA     15523       1     616      37     161     617
CTETRA     15524       1    1176    4726    5392    4676
CTETRA     15525       1    1596    5541    6933    6932
CTETRA     15526       1    1734    2516    2614    2641
CTETRA     15527       1    2398    5539    5540    5464
CTETRA     15528       1    2426    2361    2425    2824
CTETRA     15529       1    4044    3695     156    1307
CTETRA     15530       1    1422    3496    1423    2442
CTETRA     15531       1     686    1792     692     684
CTETRA     15532       1    5604     612     613    5529
CTETRA     15533       1    5528     613    5453    5529
CTETRA     15534       1     613    5452    5527    5528
CTETRA     15535       1    2811    2822     535     613
CTETRA     15536       1    1837    2436    4072    2667
CTETRA     15537       1    2141    2828    3973    4085
CTETRA     15538       1    2832     613    2811    2810
CTETRA     15539       1     685    1620    1641    2787
CTETRA     15540       1     918    5538    5537    5613
CTETRA     15541       1    2954    1965    1597    1514
CTETRA     15542       1     172    5462    5461    5537
CTETRA     15543       1    1425     685    1422    2444
CTETRA     15544       1     983    1820    1271    1667
CTETRA     15545       1     394     397     396     533
CTETRA     15546       1     613    5453    5452    5528
CTETRA     15547       1     872    1321     499    1645
CTETRA     15548       1    3073    5450    5449    5525
CTETRA     15549       1    3036    3509    1774    1323
CTETRA     15550       1    1848    3590    2808     169
CTETRA     15551       1    1328    2807    2534    2535
CTETRA     15552       1    5666    5590    5591    2177
CTETRA     15553       1    2808    3590    3876    2987
CTETRA     15554       1     450    1138     773     996
CTETRA     15555       1    2022    4649    5444    5445
CTETRA     15556       1    2528    2530    1489    2531
CTETRA     15557       1    2399    2403    2310    3751
CTETRA     15558       1    2251    5456    5531    5532
CTETRA     15559       1    2565    1981    2744    2743
CTETRA     15560       1    2434    2436    2258    4050
CTETRA     15561       1    2259    5533    5457    5532
CTETRA     15562       1    5459    5460    4689    7022
CTETRA     15563       1    2264    1918    2782    2781
CTETRA     15564       1    1048     896    1047    3248
CTETRA     15565       1    6492    2490    3164     645
CTETRA     15566       1    2398    5464    5465    4728
CTETRA     15567       1    2398    4728    4720    5464
CTETRA     15568       1    1406    3482     690    1970
CTETRA     15569       1    4720    7026    5463    5464
CTETRA     15570       1    2267    2711    3871    1992
CTETRA     15571       1    5449    7011    4568    5448
CTETRA     15572       1    3560     370    2810    5525
CTETRA     15573       1    1612     445     651     677
CTETRA     15574       1     644    2832    2810    3559
CTETRA     15575       1    5450    5451    4563    7013
CTETRA     15576       1     618     617     161     213
CTETRA     15577       1     690     691    1393     689
CTETRA     15578       1     163    5464    5463    5539
CTETRA     15579       1     172    2225    4755    3959
CTETRA     15580       1    5462    5461    7024    4756
CTETRA     15581       1    2490    2491    6493    6568
CTETRA     15582       1    3073    3560    3069     644
CTETRA     15583       1    1118    1761    1757    4133
CTETRA     15584       1    2490    2491    6568    3201
CTETRA     15585       1    5526    5527    2810    5451
CTETRA     15586       1    5450    5449    7012    4562
CTETRA     15587       1    2810    5450    5525    5526
CTETRA     15588       1     644    4564    2838    4561
CTETRA     15589       1     858    2296    3914    2674
CTETRA     15590       1    6567    3201    3164    2490
CTETRA     15591       1     172    5537    5461    5536
CTETRA     15592       1    2695    4136     856    2694
CTETRA     15593       1    5462    7025    5463    4737
CTETRA     15594       1    1593    5765    5690    5689
CTETRA     15595       1     524    4739    4690    4689
CTETRA     15596       1     524    4689    5460    4738
CTETRA     15597       1     749     856    2695     740
CTETRA     15598       1    2416    2415    3906    2414
CTETRA     15599       1    4292    7014    2811    5452
CTETRA     15600       1    2811    5452    5451    5527
CTETRA     15601       1    2811    2838    4564    4293
CTETRA     15602       1    2186    2696    2695    2694
CTETRA     15603       1    1974    2296    2695    1977
CTETRA     15604       1    5460    5461    4738    7023
CTETRA     15605       1     172    5460    5461    4738
CTETRA     15606       1    5459    5458    7021    4706
CTETRA     15607       1    2186    1885     767    2695
CTETRA     15608       1     513     192     515     512
CTETRA     15609       1    5446    5445    7008    4644
CTETRA     15610       1    3344    5446    5521    5522
CTETRA     15611       1    1311    2511    3410    1313
CTETRA     15612       1    1117    3459    1120    1119
CTETRA     15613       1    1725     571     574    2790
CTETRA     15614       1    3115    6403    6328    6327
CTETRA     15615       1    1408    1410    1874    1409
CTETRA     15616       1    2934    2935    1409     415
CTETRA     15617       1    1460    2155    1459    2977
CTETRA     15618       1    5456    5455    7018    4712
CTETRA     15619       1    5529     534     535    5530
CTETRA     15620       1     535    5453    5529    5454
CTETRA     15621       1    5453    2811    5452    4292
CTETRA     15622       1     603    1649    2756    2524
CTETRA     15623       1    5455    4714    5454    7017
CTETRA     15624       1    5455    1366    5530     532
CTETRA     15625       1    1366    5455    5456    4712
CTETRA     15626       1    5531    5530    2251     534
CTETRA     15627       1    1582    1565    1962    1662
CTETRA     15628       1    2251    5456    5532    5457
CTETRA     15629       1    1680    2756    2524    1681
CTETRA     15630       1     753     358     500    1539
CTETRA     15631       1    2259    5534    5458    5533
CTETRA     15632       1    5458    4704    5457    7020
CTETRA     15633       1    1310    4705     406    4691
CTETRA     15634       1     675     890     475    1046
CTETRA     15635       1    5444    5445    4649    7007
CTETRA     15636       1    1665    2525    1666    3672
CTETRA     15637       1    2492    2525    3087    2493
CTETRA     15638       1    1649    2524     985    3402
CTETRA     15639       1    1458     224     397     599
CTETRA     15640       1    1665    3402     985    2524
CTETRA     15641       1    5441    7003    4664    5440
CTETRA     15642       1    5443    5444    4661    7006
CTETRA     15643       1    1673    2591    1732    2516
CTETRA     15644       1    1947    1925    3362    1949
CTETRA     15645       1    1240    2415    3427    1119
CTETRA     15646       1    1540    2021    3308    2163
CTETRA     15647       1    3352    4661    2022    4653
CTETRA     15648       1    2378    2334    2821    1947
CTETRA     15649       1     924    1152    1531     926
CTETRA     15650       1    5447    5446    7009    4557
CTETRA     15651       1    5465    5464    7027    4728
CTETRA     15652       1    3480    2448    2531    2532
CTETRA     15653       1    1498    1500    1022    1499
CTETRA     15654       1    1456    3148    1967    1453
CTETRA     15655       1    2398    1598    5540    5539
CTETRA     15656       1    2850    3818    2852    3817
CTETRA     15657       1    3640    6553    6554    6478
CTETRA     15658       1    4128    4282    4434    4445
CTETRA     15659       1    1470    1468    1469    1983
CTETRA     15660       1    1994    4137    3465    3995
CTETRA     15661       1    1586    1585    1584    5391
CTETRA     15662       1    5392    1176    5467    5391
CTETRA     15663       1    1065    2439    1963    1066
CTETRA     15664       1    2429    3346    2678    1882
CTETRA     15665       1     802    1572    1056    1345
CTETRA     15666       1    1065    1068    1051    1052
CTETRA     15667       1     768    1575     672     769
CTETRA     15668       1    2214    1869    1893    1853
CTETRA     15669       1    1847    3195    3226    3790
CTETRA     15670       1     524    5459    5460    4689
CTETRA     15671       1    1330    1981    2691    2693
CTETRA     15672       1    1978    2693    1979    1981
CTETRA     15673       1    2940    1648    3072    1641
CTETRA     15674       1    1838     806     805    1555
CTETRA     15675       1     163    5463    5462    5538
CTETRA     15676       1    1056    2755    2754    1865
CTETRA     15677       1     436    2515     191    2642
CTETRA     15678       1     613    5602    2810    4127
CTETRA     15679       1    5453    5452    7015    4292
CTETRA     15680       1    4710     535    7016    4292
CTETRA     15681       1    1400    2368    3631    2155
CTETRA     15682       1     249     521    1894    1105
CTETRA     15683       1    3465    1611     304    1609
CTETRA     15684       1    1225    1551      39    1224
CTETRA     15685       1    1586    6934    4731    5465
CTETRA     15686       1    6934    5465    7028    4731
CTETRA     15687       1     574    1222     571    1725
CTETRA     15688       1    3476    4137    3995    4125
CTETRA     15689       1    5391    5392    4726    6954
CTETRA     15690       1    1584    4724    2421    4721
CTETRA     15691       1    6969    1057    5407    5406
CTETRA     15692       1    1121     275     313    1813
CTETRA     15693       1    3412    3244    4357    4348
CTETRA     15694       1     212     221     229     542
CTETRA     15695       1    1107    1103    1108    1105
CTETRA     15696       1    1793    1850     178    1813
CTETRA     15697       1    3590    3876    2987    3753
CTETRA     15698       1    5409    4345    4354    6972
CTETRA     15699       1    5408    4361    2062    5407
CTETRA     15700       1    2747    1010    1565    2749
CTETRA     15701       1    3590    2070     168    2068
CTETRA     15702       1    3590    2987    3507    3753
CTETRA     15703       1    2988     168    3775     171
CTETRA     15704       1    2988     171     169     168
CTETRA     15705       1    2458    3707    2480    3008
CTETRA     15706       1    3291    4514    4513    4528
CTETRA     15707       1    1440    5036    5027    4994
CTETRA     15708       1    2316    1921    2717    2601
CTETRA     15709       1    1227    1601    3258    1230
CTETRA     15710       1    5436    6999    4544    4461
CTETRA     15711       1    3170    1914    2341    2791
CTETRA     15712       1    1660    2416    2791    1914
CTETRA     15713       1    2340    2648    2901    3258
CTETRA     15714       1    2341    2339     649    2648
CTETRA     15715       1    2648    3170    2341    2646
CTETRA     15716       1    2341     405    3170     404
CTETRA     15717       1    3193    4512    4527    4513
CTETRA     15718       1    5434    6997    4526    6996
CTETRA     15719       1    5430    6993    4536    6992
CTETRA     15720       1    1601    2901    2649    3258
CTETRA     15721       1    4013    5504    5505    5429
CTETRA     15722       1    1787    3038    1713    3039
CTETRA     15723       1    1618    1942    1422    1421
CTETRA     15724       1     661     643     768     769
CTETRA     15725       1     670    2257    1964    1571
CTETRA     15726       1    2175    3234    3660    1446
CTETRA     15727       1    1446     314     816     176
CTETRA     15728       1    1813    1911     314     313
CTETRA     15729       1    1850    1849     176     314
CTETRA     15730       1    5442    4663    7005    5443
CTETRA     15731       1    5442    4664    7005    4663
CTETRA     15732       1    1850    1677    1851    1496
CTETRA     15733       1    1130    1034    3399    1698
CTETRA     15734       1     623     538    1828    2426
CTETRA     15735       1    2424    4550    4466    4549
CTETRA     15736       1    4138    3483    2332    3042
CTETRA     15737       1    1773    3039    1774    3037
CTETRA     15738       1    3227    4395    4394    4400
CTETRA     15739       1    3524    4308    4307    4477
CTETRA     15740       1    3875    5113    5119    5122
CTETRA     15741       1    3827    3499    4421    3593
CTETRA     15742       1    3969    2277    3426    1973
CTETRA     15743       1    2277    2846    3426    2272
CTETRA     15744       1     558    2247    1724     868
CTETRA     15745       1    2247     870     771     606
CTETRA     15746       1    2277    2670    3969     606
CTETRA     15747       1     920     870    1462    1724
CTETRA     15748       1    2274    3378    1724     920
CTETRA     15749       1    2994    2993    3454    2819
CTETRA     15750       1    2023    4637    4120    3308
CTETRA     15751       1    2710    4548    4549    4465
CTETRA     15752       1    5514    2025    5439    5515
CTETRA     15753       1    2994    1469    1288    2819
CTETRA     15754       1    3608    4631    4571    4570
CTETRA     15755       1    5437    5436    6999    4544
CTETRA     15756       1    2994    1931    3454    2993
CTETRA     15757       1    3852    4446    4448    4449
CTETRA     15758       1     968    6477    6478    6402
CTETRA     15759       1    1288     529     336    3558
CTETRA     15760       1    4139    5845    5770    5769
CTETRA     15761       1    2184    5401    5402    4350
CTETRA     15762       1    2597    2716    3558    3701
CTETRA     15763       1    3991    5397    5472    5473
CTETRA     15764       1     829    2994    2992    1167
CTETRA     15765       1    3043    4390    4317    4318
CTETRA     15766       1    2992    1930     529    1933
CTETRA     15767       1    2988     171    3774    1637
CTETRA     15768       1     968    6477    6402    6401
CTETRA     15769       1    1327    2690    1968    1512
CTETRA     15770       1    5418    5417    6980    4383
CTETRA     15771       1    2093    5418    4383    5417
CTETRA     15772       1    1325    1329    1328    2863
CTETRA     15773       1    2417     618    2464     214
CTETRA     15774       1    1005    6631    6555    3639
CTETRA     15775       1    1452    1249    1269    2472
CTETRA     15776       1    6562    2176    6487    6563
CTETRA     15777       1    1489    2528    1927    2527
CTETRA     15778       1    5420    5421    4481    6983
CTETRA     15779       1    3036    3037    3536    3832
CTETRA     15780       1    2665    2592    2988    1638
CTETRA     15781       1    2417    1637    1639    1629
CTETRA     15782       1    2003    4488    2051    4487
CTETRA     15783       1    3462    4140    5500    3464
CTETRA     15784       1    3521    3014    2003    3235
CTETRA     15785       1    3808    5498    5499    5423
CTETRA     15786       1    3235    4141    3521    4142
CTETRA     15787       1    3796    4472    4309    4498
CTETRA     15788       1     368    5100    5122    5123
CTETRA     15789       1    2046    4446    4326    4454
CTETRA     15790       1    2417    2464    2423     214
CTETRA     15791       1    4350    3288    3203    2184
CTETRA     15792       1    1781    3274     973     596
CTETRA     15793       1    3161    4448    4443    4444
CTETRA     15794       1    2118    2639    3032     419
CTETRA     15795       1    4139    5694    5769    5770
CTETRA     15796       1    2172    5550    5475    5474
CTETRA     15797       1    5401    6964    5402    4350
CTETRA     15798       1     106    4067     107    4108
CTETRA     15799       1    2118    1894     419     593
CTETRA     15800       1    3024    3646    3434     486
CTETRA     15801       1    2947    6783    6782    4962
CTETRA     15802       1    2118    1894    2639     419
CTETRA     15803       1    2026     911    4659    4656
CTETRA     15804       1    5439    5440    4658    7002
CTETRA     15805       1    3024    3646     486    2468
CTETRA     15806       1    3024     486    3434    2120
CTETRA     15807       1    5440    5439    4658    2025
CTETRA     15808       1    4658    2025    4659    5440
CTETRA     15809       1    2856    4143    4104    4144
CTETRA     15810       1    2118    4145    2121    2120
CTETRA     15811       1    3434    4145    2382    2908
CTETRA     15812       1    2132    3812    3307    2462
CTETRA     15813       1    2216    4585    4548    4569
CTETRA     15814       1    3307     609    3762    3812
CTETRA     15815       1    2559    2849    3812     609
CTETRA     15816       1    5434    5433    6996    4526
CTETRA     15817       1    5435    6998    5436    4461
CTETRA     15818       1    3109    5433    5434    4526
CTETRA     15819       1    3109    3198    3718    5508
CTETRA     15820       1     455    5587    5512    5511
CTETRA     15821       1    2667    4072    2668    4143
CTETRA     15822       1    3812    3708    3763    3762
CTETRA     15823       1    2171    2249    5398    2238
CTETRA     15824       1    1779    3812    3708    1536
CTETRA     15825       1    3313    5544    5545    5469
CTETRA     15826       1    5396    4280    5395    6958
CTETRA     15827       1    3978    4280    5396    4438
CTETRA     15828       1    3812    2462    3762    3307
CTETRA     15829       1    3276    4450    4448    4444
CTETRA     15830       1    2132    3812    2849    3307
CTETRA     15831       1    3812    1536    3520    3708
CTETRA     15832       1    3659    2409    1110    1388
CTETRA     15833       1    1235    1092     893     889
CTETRA     15834       1     948    4146     949     931
CTETRA     15835       1    2754    1404    2785    4036
CTETRA     15836       1    2754    4107    2976    2977
CTETRA     15837       1    2895    2240    6778     950
CTETRA     15838       1    5415    5414    6977    4381
CTETRA     15839       1    2127    5415    4381    5414
CTETRA     15840       1     670     797    1835    1963
CTETRA     15841       1    1520    1646    3071    3178
CTETRA     15842       1    2127    3322    2478    1800
CTETRA     15843       1    1459    2754    2976    2977
CTETRA     15844       1     255    1238    1758    1761
CTETRA     15845       1    4116    6461    6386    6385
CTETRA     15846       1    1706    2415    2618    1831
CTETRA     15847       1    1785    2585    2590    2301
CTETRA     15848       1    2221    4310    4472    4542
CTETRA     15849       1    6087    6012    6088    3192
CTETRA     15850       1    3611    2385    3375    5136
CTETRA     15851       1    5423    5424    4473    6986
CTETRA     15852       1     957     883    1627    1452
CTETRA     15853       1     711    6465    6390    6389
CTETRA     15854       1     254    2476    1624    2472
CTETRA     15855       1    3016    5422    4141    5497
CTETRA     15856       1    2275    2475    4506     970
CTETRA     15857       1    3838    5496    3837    3836
CTETRA     15858       1    1568    2857    2560    2182
CTETRA     15859       1    3040    6536    6461    6460
CTETRA     15860       1    2076    4356     414    4355
CTETRA     15861       1    1964    2258    2434    2436
CTETRA     15862       1     481     480     758    1127
CTETRA     15863       1    4364    5405    6967    5404
CTETRA     15864       1    5479    5555    3176    5480
CTETRA     15865       1    2262    5400    5475    5476
CTETRA     15866       1     413    2102    4365    1008
CTETRA     15867       1     413    4352    4360    4353
CTETRA     15868       1    1334    1600    1332     844
CTETRA     15869       1    1266    1993    2681    2711
CTETRA     15870       1    2711     256    3963    1992
CTETRA     15871       1     426    1558    1967    3148
CTETRA     15872       1     554     556    1653    3712
CTETRA     15873       1     553    1653    1196    1201
CTETRA     15874       1     556    1653    3800    1196
CTETRA     15875       1    5441    5442    4664    7004
CTETRA     15876       1    3368    5516    5517    5441
CTETRA     15877       1    2945    3919    2873    2809
CTETRA     15878       1    1259    1199    1100    2494
CTETRA     15879       1    2945    1197    1196    3799
CTETRA     15880       1    1195    1201     553    1196
CTETRA     15881       1    6384    6385    3504    6309
CTETRA     15882       1     951    5469    5394    5393
CTETRA     15883       1     608    1338    3261    2731
CTETRA     15884       1    3261     608    1505     817
CTETRA     15885       1    5393    4676    5392    6955
CTETRA     15886       1    5394    5395    4280    6957
CTETRA     15887       1    4727    3111     951    1176
CTETRA     15888       1     762    1806     956    2485
CTETRA     15889       1     542     537    1204    1775
CTETRA     15890       1    3282     312     313     585
CTETRA     15891       1    3317    5489    5414    5413
CTETRA     15892       1    3317    5488    5413    5412
CTETRA     15893       1    5412    6974    6975    4374
CTETRA     15894       1    1339    1338    4068    3261
CTETRA     15895       1    3789    4374    5411    5412
CTETRA     15896       1    2977    4107    4109    3737
CTETRA     15897       1    1338    3261    2731    4068
CTETRA     15898       1     608    2849    2730    2729
CTETRA     15899       1    2104    5578    5503    5502
CTETRA     15900       1     608    2731    2729    1338
CTETRA     15901       1    5432    5433    4530    6995
CTETRA     15902       1    2729     276     312    1142
CTETRA     15903       1    5431    5430    6993    4536
CTETRA     15904       1    3186    5430    5431    4536
CTETRA     15905       1     668    6532    6457    6456
CTETRA     15906       1    1545    3850    5736    5735
CTETRA     15907       1    2908    3646    2910    3434
CTETRA     15908       1    3024    3032    2119    2118
CTETRA     15909       1    3198    5507    5508    5432
CTETRA     15910       1    1828    5062    2425    5061
CTETRA     15911       1    3193    4513    3184    4512
CTETRA     15912       1    2469    3024    2468    3648
CTETRA     15913       1    5648    3938    5649    4147
CTETRA     15914       1    2436    2672    2606    4072
CTETRA     15915       1    2620    2622    5732    5733
CTETRA     15916       1    2639    3648    2640    2642
CTETRA     15917       1    1502    6534    6459    6458
CTETRA     15918       1    1089    6458    6383    6382
CTETRA     15919       1    1970    1407    1406    1917
CTETRA     15920       1     930    5073    4904    5076
CTETRA     15921       1    5426    5427    4521    6989
CTETRA     15922       1    1828    2426    5062    5063
CTETRA     15923       1    3481    1917    1970    1406
CTETRA     15924       1    4521     970    5427    5426
CTETRA     15925       1    3837    3836    5496    5495
CTETRA     15926       1    3412    3244    4348    3842
CTETRA     15927       1    5482    5558    2888    5483
CTETRA     15928       1    1393    1905    1407    1970
CTETRA     15929       1    5407    5408    4361    6970
CTETRA     15930       1    1057    2076    3244     107
CTETRA     15931       1    4366    2076    5406    5405
CTETRA     15932       1    2591    2614    2516    1638
CTETRA     15933       1    4720    5463    7026    4737
CTETRA     15934       1     163    5463    5538    5539
CTETRA     15935       1     996      37    1138     617
CTETRA     15936       1    1596    6932    6933    5540
CTETRA     15937       1     156     161      37     213
CTETRA     15938       1    4148    6382    6383    6307
CTETRA     15939       1    2973    1844     806    1845
CTETRA     15940       1    2651    2364    4149    4112
CTETRA     15941       1    2728    3198    2622    3718
CTETRA     15942       1    1548    6382    6307    6306
CTETRA     15943       1    3198    5508    5433    5432
CTETRA     15944       1    2729    2849    1537    1343
CTETRA     15945       1    3803    4578    4581    4583
CTETRA     15946       1    3933    5579    5580    5504
CTETRA     15947       1    5429    5430    4536    6992
CTETRA     15948       1    4149    2651    1468    2364
CTETRA     15949       1    2734    3198    5506    5581
CTETRA     15950       1    4140    4150    3808    3494
CTETRA     15951       1    4013    5505    5430    5429
CTETRA     15952       1    3830    4469    4503    4468
CTETRA     15953       1    5410    4331    6973    5411
CTETRA     15954       1    1108     773     617    1103
CTETRA     15955       1    2063    4345    4331    4332
CTETRA     15956       1    3825    3359    3370    3826
CTETRA     15957       1     300    2140     175     178
CTETRA     15958       1    1108    1629     247     213
CTETRA     15959       1    1365    1097     881    1118
CTETRA     15960       1    3445    4717    4723    4716
CTETRA     15961       1    3026    1894     419    2639
CTETRA     15962       1    1586    5466    6934    6933
CTETRA     15963       1    1468    1985    1987    2651
CTETRA     15964       1     726    6463    6388    6387
CTETRA     15965       1    2118    2121    4145    3485
CTETRA     15966       1    1586    1584     306    4731
CTETRA     15967       1     418    3208     417     419
CTETRA     15968       1    3041     417    3032     419
CTETRA     15969       1     247    2641    1105    3026
CTETRA     15970       1    5409    5408    6971    4354
CTETRA     15971       1    2062    5484    5409    5408
CTETRA     15972       1    2639    3026    3032     419
CTETRA     15973       1     419     418    3485     230
CTETRA     15974       1     301    3674    2157    3307
CTETRA     15975       1    3186    4013    4536     752
CTETRA     15976       1    5428    5427    6990    4533
CTETRA     15977       1    5428    6991    5429    4534
CTETRA     15978       1     799     800    6158    6083
CTETRA     15979       1    2542    3194     970    4522
CTETRA     15980       1    2824    1515    1999    1996
CTETRA     15981       1    2542    5503    5428    5427
CTETRA     15982       1     752    4535    3194    4534
CTETRA     15983       1     301    2158    2156    2157
CTETRA     15984       1     474    2156    2157    2396
CTETRA     15985       1    3674    4084    3762    3307
CTETRA     15986       1    3113    3292    4463    4462
CTETRA     15987       1    1391    1111    1568    2560
CTETRA     15988       1    2651    2675    1710    3451
CTETRA     15989       1    2111    4583    3803    4582
CTETRA     15990       1    5431    6994    5432    3186
CTETRA     15991       1    6994    5432    3186    4530
CTETRA     15992       1    2186    2294    2356    2694
CTETRA     15993       1    3113    3110    4529    3291
CTETRA     15994       1    2736    3193    3110    3291
CTETRA     15995       1    3756    4468    4509    4467
CTETRA     15996       1    1590    2589    2590    2232
CTETRA     15997       1    1724     920    3378    1462
CTETRA     15998       1    3360    3359    2045    5637
CTETRA     15999       1    2498    3311    3333    2652
CTETRA     16000       1    2815    5872    1887    5797
CTETRA     16001       1    5413    5412    6975    4377
CTETRA     16002       1    5413    6976    5414    4379
CTETRA     16003       1    3034    2040    2041    2039
CTETRA     16004       1    1352    3378    1463    1462
CTETRA     16005       1    2744    2743    1981    4151
CTETRA     16006       1    1585    5542    5466    5541
CTETRA     16007       1    2744    2743    4151    3577
CTETRA     16008       1    2806     168    1848    1971
CTETRA     16009       1     951    4676    5393    6956
CTETRA     16010       1     951    4676    4682    4675
CTETRA     16011       1    3432    1971    2806    1514
CTETRA     16012       1    1176    1584    5391    4726
CTETRA     16013       1    2742    3577    2744    2442
CTETRA     16014       1     414    4346    4355    4347
CTETRA     16015       1    3738    2566    2173    3845
CTETRA     16016       1    2136    4152    2678    1881
CTETRA     16017       1    5406    4366    5405    6968
CTETRA     16018       1     281    1942     958    1424
CTETRA     16019       1    2136    1881    2137    4152
CTETRA     16020       1    2618    1831    2415    2416
CTETRA     16021       1    5425    5424    6987    4504
CTETRA     16022       1    5425    5426    4516    6988
CTETRA     16023       1    1120    1706     877    1118
CTETRA     16024       1    3663    2735    3932    2746
CTETRA     16025       1    2429    2788    4129    2936
CTETRA     16026       1    2654    3461    3460    1593
CTETRA     16027       1    2104    5427    5503    2542
CTETRA     16028       1    4153    4580    4592    4552
CTETRA     16029       1    1229     296     496    3871
CTETRA     16030       1    5426    2275    2103    5425
CTETRA     16031       1    1870    1868    4154    1892
CTETRA     16032       1    3228    3927    4490    4494
CTETRA     16033       1    1706     880    2415    1120
CTETRA     16034       1    2824    1999    1515    1516
CTETRA     16035       1     501    1538     506    1268
CTETRA     16036       1    2415    3906    2414    3427
CTETRA     16037       1    5435    5434    6997    4510
CTETRA     16038       1    3586    3051    2025     911
CTETRA     16039       1    1546    4545    2196    4546
CTETRA     16040       1    1383    1676    1114     287
CTETRA     16041       1    2084    4572    4571    4630
CTETRA     16042       1    2135    2137    1881    2330
CTETRA     16043       1      18     863     674     319
CTETRA     16044       1    1915    2742    1942    1421
CTETRA     16045       1    3918    3524    4477    3523
CTETRA     16046       1    3837    3836    5495    5494
CTETRA     16047       1    5416    5415    6978    4382
CTETRA     16048       1    5416    6979    5417    4383
CTETRA     16049       1    2954    1597    1965    2499
CTETRA     16050       1    2858    2857    2135    2856
CTETRA     16051       1    1800    5415    5416    4382
CTETRA     16052       1    3690    6593    6518    6517
CTETRA     16053       1     979    5419    4304    5418
CTETRA     16054       1     214    3124    3126     153
CTETRA     16055       1    2003    4479    3014    4482
CTETRA     16056       1    2029    3142     356     354
CTETRA     16057       1    1005    6555    6556    6480
CTETRA     16058       1    2042    5491    5566    5567
CTETRA     16059       1     155    1307     703    3804
CTETRA     16060       1    3202    5621    5546    5545
CTETRA     16061       1    1960    1663    1656     544
CTETRA     16062       1    5397    5396    6959    4439
CTETRA     16063       1    5397    5398    4436    6960
CTETRA     16064       1    3313    5394    5470    5395
CTETRA     16065       1    2249    5398    2238    4436
CTETRA     16066       1    4439    2249    5397    5396
CTETRA     16067       1    5396    4438    2249    3978
CTETRA     16068       1    2949    2947    2951    3150
CTETRA     16069       1    3977    3978    3202    3217
CTETRA     16070       1    2249    5397    4436    4439
CTETRA     16071       1    2327     703    3056     704
CTETRA     16072       1    4155    2108    3849    2022
CTETRA     16073       1    1367    3804    3125     703
CTETRA     16074       1     185    2026    4657    3230
CTETRA     16075       1    5441    7004    4664    7003
CTETRA     16076       1    1510    2026    3293    1842
CTETRA     16077       1    3368    4659    5440    4664
CTETRA     16078       1    3368    3074     185    4664
CTETRA     16079       1    3318    5486    3825    5561
CTETRA     16080       1    3318    3360    5637    3359
CTETRA     16081       1    3414    5475    2172    5550
CTETRA     16082       1    1008    4358    5403    4364
CTETRA     16083       1    5403    5402    6965    4358
CTETRA     16084       1    5403    5404    4364    6966
CTETRA     16085       1    3318    3315    3826    2503
CTETRA     16086       1    1008    3203    4358    4351
CTETRA     16087       1    3318    3316    3360    3315
CTETRA     16088       1    3002    6480    6481    6405
CTETRA     16089       1    3318    3363    3826    3315
CTETRA     16090       1    5422    4488    5421    6984
CTETRA     16091       1    3318    3363    3361    3359
CTETRA     16092       1    2051    5421    5422    4488
CTETRA     16093       1    3016    4141    2051    3909
CTETRA     16094       1    2053    4471    4493    4495
CTETRA     16095       1    3145    6480    6405    6404
CTETRA     16096       1    1213    1805    1216    1215
CTETRA     16097       1    2275    2564    5425    4504
CTETRA     16098       1    3403    5294    5293    5301
CTETRA     16099       1    5425    4504    2564    3808
CTETRA     16100       1     979    5494    5495    5419
CTETRA     16101       1     957    1069     883     882
CTETRA     16102       1    1091    1805    1824    1213
CTETRA     16103       1    3435    1413    1809    1803
CTETRA     16104       1    5419    4304    5418    6981
CTETRA     16105       1     979    2818    4304    4484
CTETRA     16106       1     713    5225    5232    5224
CTETRA     16107       1    3777    5225    5280    5226
CTETRA     16108       1    1864    1889    4156    2815
CTETRA     16109       1    1661    6448    6373    6372
CTETRA     16110       1    3430    1216    1215    3435
CTETRA     16111       1    1039    6322    6398    6323
CTETRA     16112       1    3435    1809    1807    1794
CTETRA     16113       1    3415    1216    1215    3430
CTETRA     16114       1    3416    5628    5552    5627
CTETRA     16115       1    5400    5399    6962    4344
CTETRA     16116       1    5400    6963    5401    4337
CTETRA     16117       1    2171    2238    5398    5399
CTETRA     16118       1    3288    5400    5401    4337
CTETRA     16119       1    4344    2262    2238    3288
CTETRA     16120       1    2171    5399    2262    2238
CTETRA     16121       1    3608    4570    4632    4631
CTETRA     16122       1    3894    3199    3436    1214
CTETRA     16123       1    3074    4663    1116    4662
CTETRA     16124       1    5438    4654    5437    7000
CTETRA     16125       1    5438    5439    4658    7001
CTETRA     16126       1    3051    3050    5514    5513
CTETRA     16127       1    1570    3292    1576    1546
CTETRA     16128       1    2112    4632    4626    4627
CTETRA     16129       1    2607    3525    2392    4134
CTETRA     16130       1    2607     192    4134    4096
CTETRA     16131       1     189    4134     437    2817
CTETRA     16132       1    3388    5667    5668    5592
CTETRA     16133       1     189     192     437    4134
CTETRA     16134       1    2135    1881    2331    2330
CTETRA     16135       1    4135    2587    2293    4132
CTETRA     16136       1    1547    5435    5511    5436
CTETRA     16137       1    3718    5508    5584    5509
CTETRA     16138       1    1032    6674    6599    6598
CTETRA     16139       1    2196    1842    4626    4640
CTETRA     16140       1    1783     596    1997    1782
CTETRA     16141       1    2723    2461    1770    1873
CTETRA     16142       1    1771     973    1787    1784
CTETRA     16143       1    3109    5510    5435    5434
CTETRA     16144       1    1897    1900    1784    1095
CTETRA     16145       1    2483     348    1255    1818
CTETRA     16146       1    1584    4730     306    4731
CTETRA     16147       1    2324    2705    4157    2309
CTETRA     16148       1    1592    6932    6931    5616
CTETRA     16149       1    2324    2759    4085    3761
CTETRA     16150       1    2501    4117    2482    2010
CTETRA     16151       1    2501    2324    1921    2705
CTETRA     16152       1    2760    2601    2603    2765
CTETRA     16153       1    1547    5510    5511    5435
CTETRA     16154       1    2324    2705    4117    4157
CTETRA     16155       1    3058    4604    4629    4605
CTETRA     16156       1    2191    5740    5741    5665
CTETRA     16157       1     455    1576    3930    5510
CTETRA     16158       1    3109    5508    5509    5433
CTETRA     16159       1    2218    4586    4551    4550
CTETRA     16160       1    2324    3761    4114    3810
CTETRA     16161       1     455    5585    5586    5510
CTETRA     16162       1    2961    2967    2966    2963
CTETRA     16163       1    2962    2961    4131    1541
CTETRA     16164       1    4013    5506    5430    5505
CTETRA     16165       1    2967    2961    4131    2962
CTETRA     16166       1    2961    2962    2967    2963
CTETRA     16167       1    3850    5735    5659    5734
CTETRA     16168       1    2961    1541    2962    2964
CTETRA     16169       1    2961    2964    3795    1541
CTETRA     16170       1    2961    4131    3795    2083
CTETRA     16171       1     902    5102    5106    5101
CTETRA     16172       1    3198    5582    5583    5507
CTETRA     16173       1    2710    3184    4465    2424
CTETRA     16174       1    2710    4513    3291    4464
CTETRA     16175       1    5476    2184    5477    3404
CTETRA     16176       1     888    2795    1662    1364
CTETRA     16177       1    3056     704     703    1368
CTETRA     16178       1    2657    3967    3713    3095
CTETRA     16179       1    4074    2806    2912    2805
CTETRA     16180       1    2262    5476    5401    5400
CTETRA     16181       1    2433    1307      39    3695
CTETRA     16182       1    2479    3092    3098    3096
CTETRA     16183       1    1307    3804    3833    3096
CTETRA     16184       1    5694    2431    4139    1760
CTETRA     16185       1    4074    2911    4106    3621
CTETRA     16186       1    4074    4037    1972    2805
CTETRA     16187       1    1514    2806    1972    1971
CTETRA     16188       1    3151    2471    2581    2297
CTETRA     16189       1    3978    3313    5470    5395
CTETRA     16190       1    2441    4283    4128    4445
CTETRA     16191       1    3160    4450    3276    4444
CTETRA     16192       1     952    4682    4281    4681
CTETRA     16193       1    3020    3758    3055    3095
CTETRA     16194       1     551     554     544    1961
CTETRA     16195       1    3416    5628    5553    5552
CTETRA     16196       1    1162    6543    6467    6542
CTETRA     16197       1    1846    1845    1875    1876
CTETRA     16198       1    3439    3204    2046    3852
CTETRA     16199       1    2854    3360    3361    2852
CTETRA     16200       1    1876    3689    2935    3975
CTETRA     16201       1    1795    2011    1797    2165
CTETRA     16202       1    1982    2935    1875    3688
CTETRA     16203       1    3319    3369    3374    3209
CTETRA     16204       1    3890    3319    3321    3320
CTETRA     16205       1    2179    5735    5811    5736
CTETRA     16206       1    3689    2935    3975    4067
CTETRA     16207       1    3101    2899    2931    3148
CTETRA     16208       1    1704    6104    6029    6028
CTETRA     16209       1    3235    4476    3918    4480
CTETRA     16210       1    3494    3275    3909    3334
CTETRA     16211       1    4150    5498    3016    5497
CTETRA     16212       1    3464    3808    2564    3494
CTETRA     16213       1    2014    3119    1967     770
CTETRA     16214       1    4116    6460    6461    6385
CTETRA     16215       1    3880     933     217     932
CTETRA     16216       1    1653    1196    3952    3800
CTETRA     16217       1    4140    5573    5574    5498
CTETRA     16218       1    4140    5574    5499    5498
CTETRA     16219       1     556     552     554     553
CTETRA     16220       1    1653    1655    1661    1201
CTETRA     16221       1    5556     105    5481    5557
CTETRA     16222       1    1653    1201    1661    1196
CTETRA     16223       1    2502    1022    1020    1021
CTETRA     16224       1    1313    2639    2640    2642
CTETRA     16225       1     104     107    5481     105
CTETRA     16226       1    1501    1984    1289    2709
CTETRA     16227       1    3625    3416    2921    5478
CTETRA     16228       1    1339    1624    4068    2558
CTETRA     16229       1    1013     991    1014    1016
CTETRA     16230       1    3525    4909    4908    5137
CTETRA     16231       1    4158    3745    6324    6325
CTETRA     16232       1     992    3002    1006    3137
CTETRA     16233       1     858    6392    6393    6317
CTETRA     16234       1    4147    5723    5724    5648
CTETRA     16235       1    5502    5577    2103    2104
CTETRA     16236       1    1022    1023    1021    1500
CTETRA     16237       1    5588    1553    3050    4159
CTETRA     16238       1    1547    1553     455    1554
CTETRA     16239       1     256    2477    3963    3633
CTETRA     16240       1    1009    3709    5795    4156
CTETRA     16241       1    2855    5109    6768    5098
CTETRA     16242       1     909    1049     195     126
CTETRA     16243       1    1993    2477    2681    2711
CTETRA     16244       1    2104    4160    5578    5577
CTETRA     16245       1    2542    4534    5428    5429
CTETRA     16246       1    3132    3222    3864    4153
CTETRA     16247       1    3645    6393    6394    6318
CTETRA     16248       1    2477    1623    2713    2017
CTETRA     16249       1    2380    5056    5058    5055
CTETRA     16250       1    3034    5489    5490    5414
CTETRA     16251       1    1553    1547     455    5512
CTETRA     16252       1    3323    2818    3521    4103
CTETRA     16253       1    3310    2626    3562    3879
CTETRA     16254       1    1553    2056    3051    3586
CTETRA     16255       1    2421    3643    3445    4723
CTETRA     16256       1    3090    5618    4161    1760
CTETRA     16257       1    6928    4043    6929    5841
CTETRA     16258       1    3971    5694    1760    2431
CTETRA     16259       1    1553    3051    3050    3586
CTETRA     16260       1    3562    3563    4130    4049
CTETRA     16261       1    1185    1093    1097    1091
CTETRA     16262       1    1185    1097    1186    1761
CTETRA     16263       1     104    5480    2921    3176
CTETRA     16264       1    2919    5558    5634    5559
CTETRA     16265       1    5859    3845    5783    2173
CTETRA     16266       1    2045    5635    5711    5636
CTETRA     16267       1    4065    2922    2919     681
CTETRA     16268       1    1164    4325    4340    4341
CTETRA     16269       1    3244    4347    4356    4348
CTETRA     16270       1    2062    5482    5483    5407
CTETRA     16271       1    1213    1091    1805    3970
CTETRA     16272       1     970    2542    2543    3194
CTETRA     16273       1    5578    4160    4162    5577
CTETRA     16274       1    1213    1185    1091    3970
CTETRA     16275       1    3836    5570    5571    5495
CTETRA     16276       1    1185    2065    1091    3970
CTETRA     16277       1     970    5427    4533    4521
CTETRA     16278       1    1185    4113    1756    2431
CTETRA     16279       1    1185    1756    4113    3970
CTETRA     16280       1    6666    6667    3811    6591
CTETRA     16281       1    1865    2754    1404    2785
CTETRA     16282       1     767     626     492     494
CTETRA     16283       1    2103    5577    5502    5501
CTETRA     16284       1    3846    4002    5165    5175
CTETRA     16285       1    2888    5558    5557    5633
CTETRA     16286       1     979    5420    2003    4483
CTETRA     16287       1    1684    6520    6445    6444
CTETRA     16288       1    1865    2785    1404    3182
CTETRA     16289       1    1050    5073    5072    5089
CTETRA     16290       1    3401    4392    4395    4396
CTETRA     16291       1    4051    3182    2783    1866
CTETRA     16292       1    2735    2211    3932    3367
CTETRA     16293       1    2663    3362    4122    2377
CTETRA     16294       1    1131     994    2502     976
CTETRA     16295       1      49     378      55    5096
CTETRA     16296       1    1947    1938    1925    1949
CTETRA     16297       1    2735    2631    3184    3193
CTETRA     16298       1    1435    2365    2447    2335
CTETRA     16299       1    3825    5636    5561    5560
CTETRA     16300       1    2093    4383    5416    5417
CTETRA     16301       1    2127    4370    3922    4378
CTETRA     16302       1    3184    2735    2430    2631
CTETRA     16303       1    2365    2367    2366    2582
CTETRA     16304       1    2365    2447    2372    2371
CTETRA     16305       1    2484    2503    5487    5412
CTETRA     16306       1    2521    2366    2352    2353
CTETRA     16307       1    3317    5488    5489    5413
CTETRA     16308       1    2503    4375    4376    4372
CTETRA     16309       1    2503    5412    4377    4374
CTETRA     16310       1    4040    3360    3359    2045
CTETRA     16311       1    1428    1426    1434    2230
CTETRA     16312       1    2383    2448    2447    2371
CTETRA     16313       1    1434    3668    2230    3155
CTETRA     16314       1    3374    3861    2018    3826
CTETRA     16315       1    3644    4283    4680    4282
CTETRA     16316       1    2150    4445    3160    4128
CTETRA     16317       1     951    3313    5469    3314
CTETRA     16318       1    3313    5470    5394    5469
CTETRA     16319       1     952    4281    4682    4280
CTETRA     16320       1    1760    3090    5619    3971
CTETRA     16321       1    2441    4444    2202    4284
CTETRA     16322       1     951    5468    1176    3314
CTETRA     16323       1    3905    3170     405    5836
CTETRA     16324       1    3715    3826    3861    3369
CTETRA     16325       1    3826    3861    3369    3374
CTETRA     16326       1    3689    3209    3374    2975
CTETRA     16327       1    4153    4552    4551    4580
CTETRA     16328       1    3374    2975    3209    3363
CTETRA     16329       1    3374    3826    3363    3369
CTETRA     16330       1    2542    5428    4533    5427
CTETRA     16331       1    2542    5504    5428    5503
CTETRA     16332       1    2589    4033    2932    4163
CTETRA     16333       1    3663    2628    3664    2753
CTETRA     16334       1     126      55    5104     127
CTETRA     16335       1    2543    2038    3194    2211
CTETRA     16336       1    3367    4525    2211    4531
CTETRA     16337       1    3608    4631    2084    4571
CTETRA     16338       1    3933    5580    5505    5504
CTETRA     16339       1    1378    1377    3511    3328
CTETRA     16340       1     512    2932    4033    2933
CTETRA     16341       1    2104    5579    5504    5503
CTETRA     16342       1    1590    2723    2996    2585
CTETRA     16343       1    3367    3193    3348    4527
CTETRA     16344       1    2584    2589    4033    2932
CTETRA     16345       1    2584    2996    4032    2585
CTETRA     16346       1     512    3353    2933    4033
CTETRA     16347       1     573    2889     574     513
CTETRA     16348       1     513    2584    2996    3917
CTETRA     16349       1    3808    5500    5424    5499
CTETRA     16350       1    2475    3334    4500    3232
CTETRA     16351       1    2735    2736    3193    3367
CTETRA     16352       1    2629    2725    1709    2634
CTETRA     16353       1     724     711     739     766
CTETRA     16354       1    3462    5576    5501    5500
CTETRA     16355       1    3788    2038    4507    4506
CTETRA     16356       1    6775    6874    4901    6873
CTETRA     16357       1    6792     134    6716    6717
CTETRA     16358       1    4164    2606    5792    5867
CTETRA     16359       1    5877    5878    4058    3888
CTETRA     16360       1    1812    1825     719    4019
CTETRA     16361       1    1812    3168    3167    3183
CTETRA     16362       1    4147    4165    3277    5799
CTETRA     16363       1    5725    4147    3277    5724
CTETRA     16364       1    1812    3183    4019    3168
CTETRA     16365       1    1885    1812    3167    2696
CTETRA     16366       1    6763    5060    6886    5065
CTETRA     16367       1    1799    1379    1378    3328
CTETRA     16368       1    2186    2696    1520    1885
CTETRA     16369       1    3789    4331    5410    5411
CTETRA     16370       1    3904    3715    4373    4375
CTETRA     16371       1    3789    5486    5487    5411
CTETRA     16372       1    3318    5637    5562    5561
CTETRA     16373       1    3401    3227    4396    4395
CTETRA     16374       1    2040    3033    2039    3034
CTETRA     16375       1     476     477    4933    4923
CTETRA     16376       1    1812    4019    3178    1825
CTETRA     16377       1    2424    4549    3848    4550
CTETRA     16378       1    5743    5818    5742    2020
CTETRA     16379       1     372    2210    4619    4621
CTETRA     16380       1    1829    1885    1812     749
CTETRA     16381       1    1829    1812     766     749
CTETRA     16382       1    2727    2626    2728    2734
CTETRA     16383       1    4155    2022    1116    2108
CTETRA     16384       1    3893    5591    5592    5516
CTETRA     16385       1    3368    5516    5440    5515
CTETRA     16386       1    3368    5440    5516    5441
CTETRA     16387       1    2026    3293    4641    4642
CTETRA     16388       1    2487     656     657    4166
CTETRA     16389       1    3161    2202    4444    4443
CTETRA     16390       1    3313    5469    5545    5470
CTETRA     16391       1    1797    4454    4453    4447
CTETRA     16392       1     656    3164    2486     659
CTETRA     16393       1    5992    2893    5917    5993
CTETRA     16394       1    5394     951    6957    4280
CTETRA     16395       1    3161    2741    4443    4442
CTETRA     16396       1    2200    5775    2058    5774
CTETRA     16397       1    3160    2441    4128    4445
CTETRA     16398       1    1972    4074    4106    1966
CTETRA     16399       1       8    6712    6788    6713
CTETRA     16400       1     656    4166     658     657
CTETRA     16401       1    3217    5547    5472    5471
CTETRA     16402       1    2417     214    3669     213
CTETRA     16403       1    2176    6638    6563    6562
CTETRA     16404       1    3356    3144    2743    3824
CTETRA     16405       1    2288    2565    2743    1916
CTETRA     16406       1    4141    5496    5497    5421
CTETRA     16407       1    3016    5497    5498    5422
CTETRA     16408       1    2691    3144    2579    3824
CTETRA     16409       1    3462    5575    5651    5576
CTETRA     16410       1    3909    3334    4489    4499
CTETRA     16411       1    2691    2743    3824    4151
CTETRA     16412       1    5570    5571    5646    3836
CTETRA     16413       1    2691    2743    4151    1981
CTETRA     16414       1    2906    3471    6613    6614
CTETRA     16415       1    6538    6537    3471    6613
CTETRA     16416       1    2855    6693     202     374
CTETRA     16417       1    2744    1980    2442    2773
CTETRA     16418       1    3388    5742    5743    5667
CTETRA     16419       1    2744    1981    1980    2773
CTETRA     16420       1    2744    4151    1981    2773
CTETRA     16421       1    1966    1950    1953    1951
CTETRA     16422       1    2025    3893    5515    3050
CTETRA     16423       1    2025    3368     185    4659
CTETRA     16424       1    4086    3386    3335    4120
CTETRA     16425       1     185    4660     188    4650
CTETRA     16426       1    3050    5589    5514    5513
CTETRA     16427       1    2112    4627    4631    4632
CTETRA     16428       1    3566    3958     905     995
CTETRA     16429       1    3566     949     905    3958
CTETRA     16430       1    2089     904    3566    2091
CTETRA     16431       1    5431    3186    3198    5506
CTETRA     16432       1    3367    3193    4527    4532
CTETRA     16433       1    3930    5660    5584    5659
CTETRA     16434       1    2737    3109    3198    3718
CTETRA     16435       1    2710    3291    3292    4464
CTETRA     16436       1    3663    2001    2628    2753
CTETRA     16437       1    3440    3447    3441    3443
CTETRA     16438       1    4167    2606    5717    5792
CTETRA     16439       1    2935    1810     415    4168
CTETRA     16440       1    1839    1874    1875    1982
CTETRA     16441       1    3198    5582    5507    5506
CTETRA     16442       1    3718    5583    5584    5508
CTETRA     16443       1     912    5663    5587    5662
CTETRA     16444       1    3109    5510    5434    5509
CTETRA     16445       1    5510    5509    3109    3930
CTETRA     16446       1    4108    3975    4067    3689
CTETRA     16447       1    1419    1980    2761    2762
CTETRA     16448       1    1874    1409    2935    1982
CTETRA     16449       1    2934    2935     106    3975
CTETRA     16450       1    5699    2058    5624    5700
CTETRA     16451       1    2935     415     106    4067
CTETRA     16452       1    2935     415     416    4168
CTETRA     16453       1    2236    3288    4329    2238
CTETRA     16454       1    2172    2058    3413    5625
CTETRA     16455       1    3204    4446    2046    3852
CTETRA     16456       1    3689    2935    4067    3694
CTETRA     16457       1    1308    3124     155     703
CTETRA     16458       1    2262    5476    3414    3407
CTETRA     16459       1    3151    2297    2202    3894
CTETRA     16460       1    1848    2806    1971    1972
CTETRA     16461       1    1337     537    1249    1342
CTETRA     16462       1    5098    2855     909     127
CTETRA     16463       1    1227    1229    1228    2100
CTETRA     16464       1     979    5494    5418    5493
CTETRA     16465       1    3900    5099    5095    5094
CTETRA     16466       1     979    5418    5494    5419
CTETRA     16467       1    2410    4406    4405    4310
CTETRA     16468       1     662     866    1299     865
CTETRA     16469       1    3524    3483    4384    4308
CTETRA     16470       1    2042    2039    2093    4103
CTETRA     16471       1    3001    6626    6551    6550
CTETRA     16472       1    3494    3909    2564    3334
CTETRA     16473       1    3323    5569    5494    5493
CTETRA     16474       1    2297    1238    4126    3476
CTETRA     16475       1    2235    3875    5113    3610
CTETRA     16476       1    2297    1622    2202    3894
CTETRA     16477       1    2297    2471    2581    1622
CTETRA     16478       1    5409    2062    4354    4345
CTETRA     16479       1    2298    2297    3476    1994
CTETRA     16480       1    1627    3199     955    1413
CTETRA     16481       1    1703    1480    1430    1431
CTETRA     16482       1    1380    1071    1023    1967
CTETRA     16483       1    2597    1470    2600    1467
CTETRA     16484       1    4350    4358    5402    2184
CTETRA     16485       1    2921    5478    5479    5403
CTETRA     16486       1    2184    5477    3416    5478
CTETRA     16487       1    1419     708    2762    1513
CTETRA     16488       1    1754    1501    2709    1984
CTETRA     16489       1    1483    1484    1466    3224
CTETRA     16490       1    5557    5558    2888    5482
CTETRA     16491       1    2763    1980    2758    2762
CTETRA     16492       1     104    5481    5405    5480
CTETRA     16493       1    2888    5482     107    5557
CTETRA     16494       1    1915    3764    3581    2781
CTETRA     16495       1    1915    3549    3273    3764
CTETRA     16496       1    1915    3764    3273    3581
CTETRA     16497       1     218    6547    6548    6472
CTETRA     16498       1    3033    5490    5491    5415
CTETRA     16499       1    3581    2803    3984    3582
CTETRA     16500       1    4150    5497    5573    5498
CTETRA     16501       1    1801    4389    2180    3422
CTETRA     16502       1    3048    2198    4391    4390
CTETRA     16503       1    1229    2267    1230     296
CTETRA     16504       1    2042    5567    5492    5491
CTETRA     16505       1    2363    5057    5046    5056
CTETRA     16506       1    1230    3258    1228    4030
CTETRA     16507       1    3611    2385    5136    5126
CTETRA     16508       1    3900    5113    5099    5094
CTETRA     16509       1     369    3766    5101    5123
CTETRA     16510       1    4169    5870    4170    5945
CTETRA     16511       1    1230    2402    1228     296
CTETRA     16512       1    4171    3227    3401    2198
CTETRA     16513       1     168    3432     170    1971
CTETRA     16514       1    2088    6396    6320    6395
CTETRA     16515       1    1592    3996    4161    1759
CTETRA     16516       1     296    1955    2402     400
CTETRA     16517       1    4033    3875    3610    3354
CTETRA     16518       1    3974    3983    2114    3519
CTETRA     16519       1    2567    2114    2508    2520
CTETRA     16520       1    3489    5209    1493    2315
CTETRA     16521       1    3317    5488    5412    5487
CTETRA     16522       1    2859    2478    1801    3422
CTETRA     16523       1    3503     667    3504    1089
CTETRA     16524       1    2062    5484    5408    5483
CTETRA     16525       1    3401    2201    4396    3227
CTETRA     16526       1    1475    6529    6454    6453
CTETRA     16527       1    5747    3892    5672    2207
CTETRA     16528       1    2519    2863    3158    2862
CTETRA     16529       1    3028    3130    5081    6771
CTETRA     16530       1    1476    6452    6453    6377
CTETRA     16531       1    2862    3158    3519    3576
CTETRA     16532       1    3341    3158    3519    2862
CTETRA     16533       1    3158    2114    2520    4172
CTETRA     16534       1    3446    4717     305    3444
CTETRA     16535       1    3519    3983    2114    3030
CTETRA     16536       1    4125    2421    3643    3445
CTETRA     16537       1    3158    2862    2567    3576
CTETRA     16538       1    1118    4133    1097    1761
CTETRA     16539       1    1097    2814    1092    1093
CTETRA     16540       1    1213    1185    1097    1091
CTETRA     16541       1     455    5586    5587    5511
CTETRA     16542       1    2109    3803    3188    4581
CTETRA     16543       1    3718    5658    5583    5582
CTETRA     16544       1    3188    4581    4586    4584
CTETRA     16545       1    3934    3853    4092    2191
CTETRA     16546       1    1185    1761    1186    1756
CTETRA     16547       1    4173    5808    2620    5807
CTETRA     16548       1     909     195    5086    5107
CTETRA     16549       1    2622    5731    5732    5656
CTETRA     16550       1    1097    1093    1092    1091
CTETRA     16551       1    2233    2929    5092    5043
CTETRA     16552       1    1917    1919    5988    5987
CTETRA     16553       1    2718    2007    2978    2009
CTETRA     16554       1    2501    2324    2705    4117
CTETRA     16555       1    2325    2500    2009    2010
CTETRA     16556       1    2325    2009    3456    3336
CTETRA     16557       1    2765    2766    3529    3349
CTETRA     16558       1    2956    2317    2766    3553
CTETRA     16559       1    2316    1818    1817    2718
CTETRA     16560       1    2710    4464    3292    4547
CTETRA     16561       1    3051    2025    4659    4658
CTETRA     16562       1    1120    3466    1119    3459
CTETRA     16563       1    2860    2039    2858    2853
CTETRA     16564       1    2858    2856    2135    4174
CTETRA     16565       1    2654    1611    1609    1593
CTETRA     16566       1    2274    3652     126    3501
CTETRA     16567       1    2056     911    4640    4639
CTETRA     16568       1    3348    2430    2001    4511
CTETRA     16569       1    3323    4104    4103    3521
CTETRA     16570       1    2039    2041    2853    2860
CTETRA     16571       1    2621    5808    5809    5733
CTETRA     16572       1    3605    2905    5886    5961
CTETRA     16573       1    2620    5732    2622    5731
CTETRA     16574       1    2734    5505    5581    5506
CTETRA     16575       1    3198    5582    5506    5581
CTETRA     16576       1    5814    3934    4092    5815
CTETRA     16577       1    5728    4130    3887    3888
CTETRA     16578       1    2042    4103    2860    2039
CTETRA     16579       1    3893    5516    5592    5517
CTETRA     16580       1    2083    4630    4628    4629
CTETRA     16581       1    4103    2860    2039    2858
CTETRA     16582       1    2858    2856    4104    2860
CTETRA     16583       1    1245    1279    2400    3092
CTETRA     16584       1    2047    4325    4452    4454
CTETRA     16585       1    5704    3325    5780    5779
CTETRA     16586       1    3102    2223    3105    2655
CTETRA     16587       1    1873    2723    2461    2722
CTETRA     16588       1    1897    1772    2463    1784
CTETRA     16589       1    5426     970    5427    2103
CTETRA     16590       1     628    1787    3039     629
CTETRA     16591       1    1785    2301    2723    2585
CTETRA     16592       1     977    2950    2348    3641
CTETRA     16593       1    2873    4053    3039    3035
CTETRA     16594       1    2104    5577    5578    5502
CTETRA     16595       1     909    2845     202    1049
CTETRA     16596       1    3184    4466    2430    4512
CTETRA     16597       1    5801    3221    5726    5802
CTETRA     16598       1     909    1049    5085    5086
CTETRA     16599       1     929    4906    4907    5004
CTETRA     16600       1    3843    5631    5556    5555
CTETRA     16601       1    2873    3035    3832    2948
CTETRA     16602       1    1773    2873    3039    3035
CTETRA     16603       1    2078    2796    2458    2226
CTETRA     16604       1    2078    2458    2081    2080
CTETRA     16605       1    3176    5479    2921    5554
CTETRA     16606       1    2483    2080    2568    2456
CTETRA     16607       1    2081    3699    3259    3527
CTETRA     16608       1    1611    1609    1593    1610
CTETRA     16609       1    3527    2482    2032    2081
CTETRA     16610       1    3948    4336    4403    4323
CTETRA     16611       1    3404    5551    5552    5476
CTETRA     16612       1    4325    1164    3287    4341
CTETRA     16613       1    3891    4353    4340    4352
CTETRA     16614       1    3435    3439    3405    1794
CTETRA     16615       1    2481    3699    3259    2081
CTETRA     16616       1    2078    2080    2032    2034
CTETRA     16617       1    2483    2480    2080    2482
CTETRA     16618       1    3861    4334    4348    4333
CTETRA     16619       1     104    5480     105    5481
CTETRA     16620       1    3904    4332    4375    4373
CTETRA     16621       1    3842    4335    4347    4334
CTETRA     16622       1    1290     529    3558    3557
CTETRA     16623       1    3558     529     335    3557
CTETRA     16624       1     335    3558    3598     336
CTETRA     16625       1     529     528    2376    1930
CTETRA     16626       1    6838    3884    6839    6815
CTETRA     16627       1    3978    3285     952    4280
CTETRA     16628       1    2064    5697    5698    5622
CTETRA     16629       1    4113    2064    5622    5697
CTETRA     16630       1    2992     529    1290    1933
CTETRA     16631       1    3452    1858    2666    3997
CTETRA     16632       1    1862    1007    1827    1893
CTETRA     16633       1    2820    3452    3997    1858
CTETRA     16634       1    3917    3375    2887    3611
CTETRA     16635       1    3413    1171    5701    5700
CTETRA     16636       1    3939    3401    2201    2504
CTETRA     16637       1    3917    2996    2234    4032
CTETRA     16638       1    3917    3611    4032    2234
CTETRA     16639       1     513    2996     573    2889
CTETRA     16640       1    1117    3465    1611    3995
CTETRA     16641       1    5700    5624    5625    2058
CTETRA     16642       1    3248    3976    3936    3408
CTETRA     16643       1    3413    5550    5625    5626
CTETRA     16644       1     512    3917    2887    3353
CTETRA     16645       1    3917    3611    2887    3353
CTETRA     16646       1    6635    6559    1577    3760
CTETRA     16647       1    3323    5567    5568    5492
CTETRA     16648       1    4590    2904    2505    2406
CTETRA     16649       1    3918    3524    4307    4477
CTETRA     16650       1    6762    5067    5065    6887
CTETRA     16651       1     379    1482    1004    1415
CTETRA     16652       1    4104    5567    5642    5643
CTETRA     16653       1    4140    3346    1878    3494
CTETRA     16654       1    6559    6484    6560    1577
CTETRA     16655       1    3866    4059    5022    5020
CTETRA     16656       1    2639    2642    3646    3648
CTETRA     16657       1    2233    5043    5092    5093
CTETRA     16658       1    1577    6635    6636    6560
CTETRA     16659       1    3121    3023    3205    2640
CTETRA     16660       1    2145    2640    3205    2605
CTETRA     16661       1    4140    5574    5575    5499
CTETRA     16662       1    3228    3232    4491    4490
CTETRA     16663       1    3033    2042    5492    5491
CTETRA     16664       1     929    4905    4906    5003
CTETRA     16665       1       5    6713    6638    6637
CTETRA     16666       1    2189    4918    3449    4919
CTETRA     16667       1    2640    3648    3205    2605
CTETRA     16668       1    5030    5028    1607    5032
CTETRA     16669       1    4175    5650    5575    5574
CTETRA     16670       1    2133    1243    1811    2132
CTETRA     16671       1    2511    2510    2642    1106
CTETRA     16672       1       5    6637    2176    3171
CTETRA     16673       1    3706    5036    4994    4908
CTETRA     16674       1     353    4902    5080    5074
CTETRA     16675       1    4160    5652    5577    5576
CTETRA     16676       1    3571    3726    3065    3572
CTETRA     16677       1    1383    1813    1911    1849
CTETRA     16678       1    3186     752    4531    3367
CTETRA     16679       1     576    1702    1734    1733
CTETRA     16680       1    3078    3085    3087    2473
CTETRA     16681       1    3181    3078    3243    1806
CTETRA     16682       1    3240    4176    1172    3078
CTETRA     16683       1    3078    3086    2493    3087
CTETRA     16684       1     884    1364     893     889
CTETRA     16685       1    1121    1813     313    1911
CTETRA     16686       1    3235    3918    4476    3910
CTETRA     16687       1    2492    3240    3237    1895
CTETRA     16688       1    2933    4177    4041    3353
CTETRA     16689       1    3521    4178    4179    2180
CTETRA     16690       1    3228    3858    4494    4493
CTETRA     16691       1    4141    3235    2003    2051
CTETRA     16692       1    3572    1205    2946    3171
CTETRA     16693       1    6615    2906    6614    2387
CTETRA     16694       1    3380    5028    3185    1607
CTETRA     16695       1     192    2877     436    2886
CTETRA     16696       1    1465    3117    4045    1454
CTETRA     16697       1    3316    5563    5488    5487
CTETRA     16698       1    3375    5127    5136    5133
CTETRA     16699       1     437    2886    2887     192
CTETRA     16700       1    3380    5028    1607    5023
CTETRA     16701       1    2607    2043    1463    4096
CTETRA     16702       1    2607    3525     189    3345
CTETRA     16703       1    2201    4400    4397    4396
CTETRA     16704       1    2337    6483    6407    6482
CTETRA     16705       1    2607     189     192     190
CTETRA     16706       1    3175    4394    4319    4320
CTETRA     16707       1     662     937    1123     519
CTETRA     16708       1    3610    5126    5119    5112
CTETRA     16709       1    2714    2540    4668    2393
CTETRA     16710       1    3825    5561    5486    5485
CTETRA     16711       1    3286    4321    4404    4399
CTETRA     16712       1    4406    2829    3828    2411
CTETRA     16713       1    3789    5486    5411    5410
CTETRA     16714       1    3431    4401    4397    4400
CTETRA     16715       1    1624    1623    2016    2713
CTETRA     16716       1    1624    2476    2703    2558
CTETRA     16717       1     213    1629     618     617
CTETRA     16718       1     254    1624    2477    1623
CTETRA     16719       1    2714    2702    2540    4068
CTETRA     16720       1    3819    4427    4321    4425
CTETRA     16721       1    2326    2501    2481    2500
CTETRA     16722       1    3825    5560    5484    5559
CTETRA     16723       1    3318    5561    5562    5486
CTETRA     16724       1    3861    4398    4333    4373
CTETRA     16725       1    3699    2310    3752    2705
CTETRA     16726       1    4150    5572    5573    5497
CTETRA     16727       1    1818    2969    1816    2718
CTETRA     16728       1     709    2916    2776    2798
CTETRA     16729       1     709    4031     707    3815
CTETRA     16730       1    3910    3927    3858    4496
CTETRA     16731       1     709    4080    2915    3988
CTETRA     16732       1    4147    4180    5647    3938
CTETRA     16733       1     709    4181    1951    1965
CTETRA     16734       1    4140    5575    5500    5499
CTETRA     16735       1    1896    4165    4147    1887
CTETRA     16736       1    2899    6474    6399    6398
CTETRA     16737       1     709    1965    4031    4181
CTETRA     16738       1    1624    2702    2714    4068
CTETRA     16739       1     393    5107    5104    5103
CTETRA     16740       1    1193    1194    3129    3018
CTETRA     16741       1    3645    6469    6470    6394
CTETRA     16742       1    3706    5039    5036    4909
CTETRA     16743       1    1496    1851     589    1677
CTETRA     16744       1      96    1132    1834    1489
CTETRA     16745       1    1983    1754    1464    1320
CTETRA     16746       1    1861    1860    2167    1209
CTETRA     16747       1    1398    1399    1851     589
CTETRA     16748       1    1136    1739    2848    2530
CTETRA     16749       1    3215    5547    5548    5472
CTETRA     16750       1    2581    4069    2202    1622
CTETRA     16751       1    3884    2972    5219    5163
CTETRA     16752       1    3650    4672    4673    3644
CTETRA     16753       1    2046    1797    3852    4446
CTETRA     16754       1    1238    3312    1755    4182
CTETRA     16755       1    1122     525     520     526
CTETRA     16756       1    3446    3809    3177    4733
CTETRA     16757       1     690    3482    1406    1769
CTETRA     16758       1    3151    3650    4672    2298
CTETRA     16759       1    3217    5547    5471    5546
CTETRA     16760       1    1173    5627    5552    5551
CTETRA     16761       1    1193    3018    3129    1276
CTETRA     16762       1    1171    5700    5776    5701
CTETRA     16763       1    4054    5844    4119    5843
CTETRA     16764       1    3215    5547    5622    5623
CTETRA     16765       1     170    3775    2190     168
CTETRA     16766       1    5924    5849    2152    2879
CTETRA     16767       1    2988    2989    3590    2987
CTETRA     16768       1    3775    2989    3254    2070
CTETRA     16769       1    3590     168    2070    3775
CTETRA     16770       1    1971     170     169    2423
CTETRA     16771       1    1241     895     896     894
CTETRA     16772       1    3838    5572    5496    5571
CTETRA     16773       1    4178    4142    3910    3235
CTETRA     16774       1    2989    3590    2070    3775
CTETRA     16775       1    3838    5647    5572    5571
CTETRA     16776       1    1848    4088     168    2806
CTETRA     16777       1    2794    3683    4135     889
CTETRA     16778       1    2724    4048    3936    3248
CTETRA     16779       1    6455    2925    2389    6380
CTETRA     16780       1    2392    5129    5138    5137
CTETRA     16781       1    2824    2362    2004    1515
CTETRA     16782       1    4147    5724    5649    5648
CTETRA     16783       1    2392    4910    4909    5137
CTETRA     16784       1    1549    2389    1550    6380
CTETRA     16785       1     895    3981    3982    4048
CTETRA     16786       1    2750    2748    3981     895
CTETRA     16787       1    4105    5691    5692    5616
CTETRA     16788       1    2750    3982    3981    3683
CTETRA     16789       1     894     895    2812    1241
CTETRA     16790       1    3314    5543    5467    5542
CTETRA     16791       1    1176    5391    1584    1585
CTETRA     16792       1    3090    5543    5544    5468
CTETRA     16793       1    3090    5468    5544    5469
CTETRA     16794       1    1186    1760    4119    4139
CTETRA     16795       1    3805    1047    2724    3248
CTETRA     16796       1     894    2814    1241    2812
CTETRA     16797       1    3291    3193    4528    4513
CTETRA     16798       1    3893    5591    5515    5590
CTETRA     16799       1    5590    2177    3050    3893
CTETRA     16800       1    3344    5521    5520    5596
CTETRA     16801       1      57    5591    5667    3893
CTETRA     16802       1    2465    4594    4577    4573
CTETRA     16803       1    3893    5667    5592    5591
CTETRA     16804       1    1542    4634    2163    3795
CTETRA     16805       1    1946    1748    3482    1970
CTETRA     16806       1    2724     895    1241    2812
CTETRA     16807       1    1241    2814    4133    2812
CTETRA     16808       1    1592    5541    6932    5616
CTETRA     16809       1     894    1097    2814    1092
CTETRA     16810       1    3966    4765    2712    4762
CTETRA     16811       1    1241    1242    4133    1119
CTETRA     16812       1    3588    3046    3053    3603
CTETRA     16813       1    1343    2558    2559    1342
CTETRA     16814       1    2103    5576    5577    5501
CTETRA     16815       1    3462    5576    5500    5575
CTETRA     16816       1    1048    3248    1047    3482
CTETRA     16817       1    4175    5650    5574    5649
CTETRA     16818       1    3884    5163    2347    2972
CTETRA     16819       1    2748     895     897    3248
CTETRA     16820       1    2250    6379    6304    6303
CTETRA     16821       1     896     897     895    3248
CTETRA     16822       1    4160    5576    5651    5652
CTETRA     16823       1    2412    4407    4410    4411
CTETRA     16824       1    3828    2221    4406    2411
CTETRA     16825       1    3828    2829    4060    3660
CTETRA     16826       1    3588    2609    3684    2308
CTETRA     16827       1    2843    4711     535     532
CTETRA     16828       1    5041    2612    5040    5033
CTETRA     16829       1    5654    5578    3665    4162
CTETRA     16830       1    1388    3828    2221    1443
CTETRA     16831       1    2104    5578    5579    5503
CTETRA     16832       1    2631    2720    2424    2710
CTETRA     16833       1     777     663    3588    3684
CTETRA     16834       1     532    5455    4712    4714
CTETRA     16835       1    4153    1028    4537    2813
CTETRA     16836       1     532    4708    2843    4711
CTETRA     16837       1     532    4709     785    4708
CTETRA     16838       1    3933    5655    5580    5579
CTETRA     16839       1    1388    2175    3828    1443
CTETRA     16840       1    6778    5019    5018    6871
CTETRA     16841       1    2289    6630    6705    6706
CTETRA     16842       1    1737    3046    3961    3585
CTETRA     16843       1    2409    2411    1388    3659
CTETRA     16844       1    1173    5702    5627    5626
CTETRA     16845       1    3828    4060    2052    1443
CTETRA     16846       1    5775    3243    3085    5850
CTETRA     16847       1    3414    5550    5551    5475
CTETRA     16848       1    2172    5550    5474    5549
CTETRA     16849       1    3852    4447    3161    4448
CTETRA     16850       1    3217    2064    3215    5622
CTETRA     16851       1    2249    3285    4438    4434
CTETRA     16852       1    5550    5625    5549    2172
CTETRA     16853       1    2089    2091    3566    2941
CTETRA     16854       1    2089    3377    3567    3118
CTETRA     16855       1     974    3567    3937    3565
CTETRA     16856       1    1553    5587    5588    5512
CTETRA     16857       1    3050    5588    5589    5513
CTETRA     16858       1    3781    5663    5664    5588
CTETRA     16859       1     974     906    3567    3565
CTETRA     16860       1     777    3588    2609    3684
CTETRA     16861       1    5806    5807    4111    5731
CTETRA     16862       1    1570    1554    2196    1546
CTETRA     16863       1    3119    2014    3565    3567
CTETRA     16864       1    3567    3565    3640    3937
CTETRA     16865       1    3640    3567    3119    3565
CTETRA     16866       1    2622    5657    5582    5581
CTETRA     16867       1    3879    4111    5731    5730
CTETRA     16868       1    2658    3188    3803    3189
CTETRA     16869       1    3719    5658    5659    5583
CTETRA     16870       1    2089    2090    1372    3118
CTETRA     16871       1    3719    5734    5659    5658
CTETRA     16872       1    2734    5581    5505    5580
CTETRA     16873       1    3665    4160    4154    4162
CTETRA     16874       1    3190    4579    4593    4580
CTETRA     16875       1    3793    2005    2611    2220
CTETRA     16876       1    3793    1687    3953    2619
CTETRA     16877       1    3793    2586    2619    2005
CTETRA     16878       1     189    3345    3706    2816
CTETRA     16879       1     216    6472    6473    6397
CTETRA     16880       1    2745    5656    5580    5655
CTETRA     16881       1    3377    6703    6704    6628
CTETRA     16882       1    2607    3345     962    3525
CTETRA     16883       1    3304    4600    4601    4588
CTETRA     16884       1    2622    5657    5658    5582
CTETRA     16885       1    2249    4433    2150    4434
CTETRA     16886       1    3605    3454    3450    2905
CTETRA     16887       1    2841    5964    6040    5965
CTETRA     16888       1    2745    5730    5731    5655
CTETRA     16889       1     189     190    3345    2816
CTETRA     16890       1    3233    3741    2313     437
CTETRA     16891       1    1235    3218    1090    1093
CTETRA     16892       1    5645    4183    5570    5646
CTETRA     16893       1    4104    4183    5569    5644
CTETRA     16894       1    3796    4498    3523    4497
CTETRA     16895       1    3323    5568    5493    5492
CTETRA     16896       1    1235    3700    3296    2739
CTETRA     16897       1    4143    4183    3709    4184
CTETRA     16898       1     192    4096    2887    3741
CTETRA     16899       1    4185    4414    4409    4416
CTETRA     16900       1    4134    4096    3741    2957
CTETRA     16901       1    2607    4096    4134    2957
CTETRA     16902       1     968    6477    6401    6476
CTETRA     16903       1    2221    4406    4310    4311
CTETRA     16904       1    2816     190     191     189
CTETRA     16905       1    6485    2284    1577    6484
CTETRA     16906       1    4134    3741    5138    2392
CTETRA     16907       1    4063    3704    2048    2554
CTETRA     16908       1    4063    3705    3704    2554
CTETRA     16909       1    2720    2424    2710    2216
CTETRA     16910       1    1709    2621    3719    2622
CTETRA     16911       1    2111    3803    2109    4582
CTETRA     16912       1    4063    4060    2035    2517
CTETRA     16913       1    2174    4063    4060    3298
CTETRA     16914       1    3930    5660    5661    5585
CTETRA     16915       1    2841    5964    6039    6040
CTETRA     16916       1    4063    4060    3298    2904
CTETRA     16917       1    3705    4063    2174     473
CTETRA     16918       1    3772    5736    5737    5661
CTETRA     16919       1    2109    3803    4581    4582
CTETRA     16920       1    3772    5737    5662    5661
CTETRA     16921       1    4013    5430    5506    5431
CTETRA     16922       1    4092    5738    5814    5739
CTETRA     16923       1    2174    3705    3661    3704
CTETRA     16924       1    2220    3516    3295    1650
CTETRA     16925       1    3825    5561    5485    5560
CTETRA     16926       1     131    7031    2382    7030
CTETRA     16927       1    3360    4091    5637    2045
CTETRA     16928       1    5633     681    5632    2888
CTETRA     16929       1    5639    3816    3316    5564
CTETRA     16930       1    2950    4954    4953    4965
CTETRA     16931       1    2098    4321    3819    4427
CTETRA     16932       1     131    2121     129     283
CTETRA     16933       1     342     130    2312     283
CTETRA     16934       1     131    4145    2837    2382
CTETRA     16935       1    3416    5552    5553    5477
CTETRA     16936       1    3415    2172    2058    3413
CTETRA     16937       1    3176    5630    5555    5554
CTETRA     16938       1    2047    4452    4325    4324
CTETRA     16939       1     131    4186    3165    2837
CTETRA     16940       1     129     130     131     283
CTETRA     16941       1    3317    2127    2484    4379
CTETRA     16942       1    2121    3485    7040     131
CTETRA     16943       1    3033    5566    5490    5565
CTETRA     16944       1    3524    3042    4384    3483
CTETRA     16945       1    5796    3709    4180    4156
CTETRA     16946       1    3611    5136    5127    5126
CTETRA     16947       1    3120    3700    2293    3296
CTETRA     16948       1    2748     895    4048    3981
CTETRA     16949       1    3982    2553    3682    4055
CTETRA     16950       1    3741    5133    5138    5128
CTETRA     16951       1    5117     967     939     940
CTETRA     16952       1    4018    3192    6087    6088
CTETRA     16953       1    3818    5715    5716    5640
CTETRA     16954       1    2042    5566    5642    5567
CTETRA     16955       1    3043    4405    2222    2410
CTETRA     16956       1    3827    4410    4414    4421
CTETRA     16957       1     895    3982    2812    4048
CTETRA     16958       1    1566    1572    1573    1574
CTETRA     16959       1    3537    3895    5943    2285
CTETRA     16960       1     196    5088    5087    5106
CTETRA     16961       1    3982    2553    2893    3682
CTETRA     16962       1    3982    4048    3981    2893
CTETRA     16963       1    5480    3176     105    5555
CTETRA     16964       1    2749    3212    3515    3012
CTETRA     16965       1    2249    2238    4435    4436
CTETRA     16966       1     304    1586    2398    1598
CTETRA     16967       1     548     465     555    2572
CTETRA     16968       1    4144    5794    5719    5718
CTETRA     16969       1    3700    3296    2739    2293
CTETRA     16970       1    3316    5563    5564    5488
CTETRA     16971       1    3316    5563    5487    5562
CTETRA     16972       1    3040    6537    6461    6536
CTETRA     16973       1    4187    2198    3048    3042
CTETRA     16974       1    2201    3431    4397    4400
CTETRA     16975       1    2061    4425    4320    4411
CTETRA     16976       1    3080    3819    3806    2061
CTETRA     16977       1    4185    4410    4409    4414
CTETRA     16978       1    3525    2817    3706    4909
CTETRA     16979       1    2795    3120    4135    3516
CTETRA     16980       1    2134    1243    1811    2133
CTETRA     16981       1    3071    1825    1812    3178
CTETRA     16982       1    2177    5664    5665    5589
CTETRA     16983       1    2084    3877    4571    4572
CTETRA     16984       1    4188    2084    2428    3877
CTETRA     16985       1    2249    2150    4433    4435
CTETRA     16986       1    2191    5741    5666    5665
CTETRA     16987       1    1650    2795    3515    2220
CTETRA     16988       1    1284    1273    1275    1244
CTETRA     16989       1    2992    1167    1931    1933
CTETRA     16990       1    1944    1931    1932    2391
CTETRA     16991       1     415    3250    3251    3429
CTETRA     16992       1    2935    4168    4097    1810
CTETRA     16993       1    2620    5808    5733    5732
CTETRA     16994       1    1823    2892    3106    3218
CTETRA     16995       1    3933    5654    5655    5579
CTETRA     16996       1    5577    4160    4162    5652
CTETRA     16997       1    2934     415    3429    3176
CTETRA     16998       1    2226    1686    4303     795
CTETRA     16999       1    3186    3110    3193    4532
CTETRA     17000       1    2211    4525    2001    4520
CTETRA     17001       1     723    6466    6391    6390
CTETRA     17002       1    2935    4097    1982    1810
CTETRA     17003       1    2906    6689    6614    6613
CTETRA     17004       1    2745    5580    5656    5581
CTETRA     17005       1    1002    5948    5873    5872
CTETRA     17006       1    4162    5728    5653    5652
CTETRA     17007       1     544    1653    1656    3419
CTETRA     17008       1    1306      37      39    1307
CTETRA     17009       1     705     704    1251    3814
CTETRA     17010       1     704     705    3935    3814
CTETRA     17011       1    3935    3814    1990     704
CTETRA     17012       1    5707    2128    2922    5783
CTETRA     17013       1    3360    3817    5638    4091
CTETRA     17014       1    3845    1670    5933    5932
CTETRA     17015       1    1840    3081    3157    1555
CTETRA     17016       1    2203    2204    2206    3088
CTETRA     17017       1     105    5556    5632    5557
CTETRA     17018       1    1250    1385    2329    1387
CTETRA     17019       1    3798    5845    5921    5846
CTETRA     17020       1    2099    2100    2647    2101
CTETRA     17021       1    2905    5887    5963    5888
CTETRA     17022       1    3409    3915    5990    5915
CTETRA     17023       1     545    1195     465     547
CTETRA     17024       1    3090    5543    5619    5544
CTETRA     17025       1    3151    3477    4284    2581
CTETRA     17026       1    2824    1999    1304     539
CTETRA     17027       1    3263    2393    2203    3088
CTETRA     17028       1     305    4734     318    4735
CTETRA     17029       1    2327    3055    1384    1369
CTETRA     17030       1    3838    5496    5572    5497
CTETRA     17031       1    3079    2061    3080    3806
CTETRA     17032       1    3847    4153    2218    3190
CTETRA     17033       1     541    6611    6535    6610
CTETRA     17034       1    2035    4313    4541    4539
CTETRA     17035       1     703    2499    3935     705
CTETRA     17036       1    3938    5649    5574    5573
CTETRA     17037       1    3277    4165    5800    5799
CTETRA     17038       1    3608    4571    2084    2111
CTETRA     17039       1    1776    4071    4073    3329
CTETRA     17040       1     711    6390    6315    6314
CTETRA     17041       1    5050    2427    2425    5054
CTETRA     17042       1    1765    5131    5134    5130
CTETRA     17043       1    4073    3329    4071    2166
CTETRA     17044       1     162    4850    4863    4851
CTETRA     17045       1    4073    4066    2165    1795
CTETRA     17046       1    1462     920    3378     921
CTETRA     17047       1     921     901     196     902
CTETRA     17048       1    1462    4177     921    3378
CTETRA     17049       1    2937    3303    2396     472
CTETRA     17050       1     769    2296     865    2674
CTETRA     17051       1    1975    1973    1976    2272
CTETRA     17052       1    2064    5623    3215    5622
CTETRA     17053       1    3081    3688    3321    3921
CTETRA     17054       1    3400      94     610     611
CTETRA     17055       1    2064    2058    5624    5623
CTETRA     17056       1    3080    3490    3152    3928
CTETRA     17057       1    4840     162    4852    4839
CTETRA     17058       1    2202    4285    4458    4459
CTETRA     17059       1    3409    4043    5915    6928
CTETRA     17060       1    2165    2166    4451    4431
CTETRA     17061       1    3378    4041    3651    3652
CTETRA     17062       1     564    2607     962    1462
CTETRA     17063       1    2262    5475    5399    5474
CTETRA     17064       1    1973    3645    3969    2674
CTETRA     17065       1    3176    5630    5554    5629
CTETRA     17066       1    2278    3498    3652    3501
CTETRA     17067       1    2271    4041    2932    2933
CTETRA     17068       1    1352    1463    3378    2933
CTETRA     17069       1     719    6314    6239    6238
CTETRA     17070       1    3816    2851    2041    2040
CTETRA     17071       1     921     870    1462     920
CTETRA     17072       1    3081    3928    2098    3819
CTETRA     17073       1     868    1462     869     870
CTETRA     17074       1    1196    1487    3952    3799
CTETRA     17075       1    1655    1661    1201    2939
CTETRA     17076       1    1201    1199    1196    1195
CTETRA     17077       1    3034    5564    5565    5489
CTETRA     17078       1    3353     368    3354    3213
CTETRA     17079       1    1887    5874    1002    4165
CTETRA     17080       1    3102    3093    3104    2655
CTETRA     17081       1    4022    3040    4116     541
CTETRA     17082       1    1095    1099    5245    1901
CTETRA     17083       1    1454    6254    6179    6178
CTETRA     17084       1    1474    4879    4867    4866
CTETRA     17085       1    3709    5796    5721    5720
CTETRA     17086       1    2043    3899    2044    2957
CTETRA     17087       1     723    6467    6391    6466
CTETRA     17088       1    3354    3355    5127    3611
CTETRA     17089       1    1462     941     869    2164
CTETRA     17090       1    1462    1463    2043    4177
CTETRA     17091       1     802     397    1056    1459
CTETRA     17092       1    1197    1487    2223    2224
CTETRA     17093       1    3732    1583    2030    3653
CTETRA     17094       1    1531    2823    3425    2881
CTETRA     17095       1    4170    5945    5870    5869
CTETRA     17096       1    3286    3898    3806    4399
CTETRA     17097       1    3689    3374    4108    3370
CTETRA     17098       1    3319    3689    3374    3687
CTETRA     17099       1    1838    1840    1875    1845
CTETRA     17100       1    2040    5641    5566    5565
CTETRA     17101       1    3483    2222    3043    4317
CTETRA     17102       1    2427    2824    1304    2426
CTETRA     17103       1    2973    3363    3361    2183
CTETRA     17104       1    3319    3209    1845    1840
CTETRA     17105       1    4167    5642    5717    5718
CTETRA     17106       1     725    6386    6462    6387
CTETRA     17107       1    1085    1087    5358    5357
CTETRA     17108       1    4060    2829    4541    2035
CTETRA     17109       1    2228    6386    6311    6310
CTETRA     17110       1    3628    3455    2768    2770
CTETRA     17111       1    2154    5110    5125    5111
CTETRA     17112       1    2770    2769    3635    3455
CTETRA     17113       1    2765    3620    2770    3635
CTETRA     17114       1     370    3628    3560    3635
CTETRA     17115       1    3635    3628    3560    2770
CTETRA     17116       1    1173    5626    5627    5551
CTETRA     17117       1    2011    3161    4442    2741
CTETRA     17118       1    2768    2770    3761    3336
CTETRA     17119       1    1164    4340    4325    4326
CTETRA     17120       1    2770    3761    3336    3559
CTETRA     17121       1    2770    3560    3336    3628
CTETRA     17122       1    2770    3635    3561    3560
CTETRA     17123       1    2162    2400    1245    1247
CTETRA     17124       1    3817    5789    5790    5714
CTETRA     17125       1    3316    3360    3816    5639
CTETRA     17126       1    1256    2956    2317    2955
CTETRA     17127       1    2717    2767    2766    2769
CTETRA     17128       1    3817    5714    5715    5639
CTETRA     17129       1    3806    4425    2061    3819
CTETRA     17130       1    1219    1881    1389    2331
CTETRA     17131       1    2040    5639    5640    5564
CTETRA     17132       1    5066    5068     623    5063
CTETRA     17133       1    6310    3173    6235    6311
CTETRA     17134       1    3633    1994    3963     256
CTETRA     17135       1     962    3525    1390    3899
CTETRA     17136       1     256    2297    2471    2298
CTETRA     17137       1    4144    5718    4167    2606
CTETRA     17138       1    1994    3963    1992    3992
CTETRA     17139       1    1994    3963     256    1992
CTETRA     17140       1    1994    4137    3476    2298
CTETRA     17141       1    5515    3050    5514    2025
CTETRA     17142       1      57    3388    5667    5742
CTETRA     17143       1    3907     791    5892    3794
CTETRA     17144       1      57    5666    5741    5742
CTETRA     17145       1    2406    2904    2505     473
CTETRA     17146       1    3870    3350    2030    5897
CTETRA     17147       1    2108    5517    5592    5593
CTETRA     17148       1    2428    4604    3058    4613
CTETRA     17149       1    4119    5768    5769    5693
CTETRA     17150       1    2883    3139    3732    3787
CTETRA     17151       1     255    1758     878    1761
CTETRA     17152       1    1994    1992    3465    3992
CTETRA     17153       1    1994    3995    3476    4137
CTETRA     17154       1     878    3476    3995    1758
CTETRA     17155       1    3971    5694    5695    5619
CTETRA     17156       1    2395    2466    3128    2457
CTETRA     17157       1    2011    2741    4442    2205
CTETRA     17158       1    2204    4456    4287    4460
CTETRA     17159       1    2395    3018    3128    3303
CTETRA     17160       1    3287    4341    4324    4325
CTETRA     17161       1    1085    2563    5333    5334
CTETRA     17162       1    2058    5699    5623    5698
CTETRA     17163       1    2172    5625    5549    5624
CTETRA     17164       1    2395    3303    3304     474
CTETRA     17165       1    3228    3232    3913    4491
CTETRA     17166       1    2052    2053    1028    4543
CTETRA     17167       1    4112    5806    5882    5807
CTETRA     17168       1    3638    6468    6392    6467
CTETRA     17169       1    6318     856    6317    6242
CTETRA     17170       1    3311    4111    2652    3885
CTETRA     17171       1    3462    5651    5575    5650
CTETRA     17172       1    2395    2457    1686    2466
CTETRA     17173       1    2395    2684    4603    1686
CTETRA     17174       1    2395    4600    3965    1686
CTETRA     17175       1     940    5116    1390    5117
CTETRA     17176       1    1615    2602    2830    3475
CTETRA     17177       1     740    6317    6242    6241
CTETRA     17178       1    1614    1615    1921    1616
CTETRA     17179       1    3897    5889    5888    5964
CTETRA     17180       1    2830    3266    2343    3267
CTETRA     17181       1    1600    2310    2309    3474
CTETRA     17182       1    1600    1613    1601    3474
CTETRA     17183       1    4162    5653    5654    5578
CTETRA     17184       1    4173    5808    5807    5883
CTETRA     17185       1    1085    2563    5336    1729
CTETRA     17186       1    1087    1857    5357    1085
CTETRA     17187       1    3164    6566    6642    6567
CTETRA     17188       1     445    1334     362    1603
CTETRA     17189       1    2984    3732    3653    1583
CTETRA     17190       1    3425    3780    3784    1583
CTETRA     17191       1    1904    2830    3943    2831
CTETRA     17192       1    2830    2343    3266    2831
CTETRA     17193       1    5729    4130    4162    5654
CTETRA     17194       1    4111    5805    5806    5730
CTETRA     17195       1    4153    3190    4592    4580
CTETRA     17196       1    3887    5805    5730    5729
CTETRA     17197       1    3149    6639    6715    6640
CTETRA     17198       1    3461    5688     898     873
CTETRA     17199       1    5721    5796    3709    4180
CTETRA     17200       1    3461    3460    5764    5839
CTETRA     17201       1    2645    2647    2654    1609
CTETRA     17202       1     135    6791    2050    4957
CTETRA     17203       1    2654    3461     898    2647
CTETRA     17204       1    1009    4170    5869    3538
CTETRA     17205       1    4184    3709    4180    5721
CTETRA     17206       1    3016    4485    5422    5423
CTETRA     17207       1    5795    3709    5796    4156
CTETRA     17208       1     657       7     641    1445
CTETRA     17209       1    3862    3867    2850    3817
CTETRA     17210       1    2258    3818    2850    4164
CTETRA     17211       1    2791     873    3461    2647
CTETRA     17212       1    1803    3430    3252    1809
CTETRA     17213       1    6490    6415    2159     989
CTETRA     17214       1    2984    3425    3732    1583
CTETRA     17215       1    3430    3436    3438    2237
CTETRA     17216       1    1413    1808    3199    1807
CTETRA     17217       1    3938    5648    5649    5573
CTETRA     17218       1    3938    5648    5572    5647
CTETRA     17219       1    1009    3709    4144    5719
CTETRA     17220       1    3181    1803    1806    3249
CTETRA     17221       1    4180    5796    4156    5797
CTETRA     17222       1    4165    2666    3614    3277
CTETRA     17223       1    2409    2412    3047    2410
CTETRA     17224       1     228    2269    4944    2306
CTETRA     17225       1    6491    2159    3164    6566
CTETRA     17226       1    1192    3129    2966    1277
CTETRA     17227       1    2458    3708    1779    2462
CTETRA     17228       1    3517    2824    1996    2362
CTETRA     17229       1    2865    6022    5947    5946
CTETRA     17230       1    1413    1808    1807    2268
CTETRA     17231       1    2622    5656    5657    5581
CTETRA     17232       1    3554    3542    3999    3351
CTETRA     17233       1    3277    5876    5801    5800
CTETRA     17234       1    4162    2357    5727    5652
CTETRA     17235       1    2603    3554    1903    3747
CTETRA     17236       1     301    2157    3674    2158
CTETRA     17237       1    2622    5733    5658    5657
CTETRA     17238       1    2218    4153    4580    3190
CTETRA     17239       1    1087     636     635    1857
CTETRA     17240       1    2111    4571    3877    4583
CTETRA     17241       1    3512    3472    4016    2361
CTETRA     17242       1    3224    2600    6182    6181
CTETRA     17243       1    1367    3935     703    3125
CTETRA     17244       1    1085    5335    2563    5334
CTETRA     17245       1    1581    1277    2568    1276
CTETRA     17246       1     756    1365    1096     882
CTETRA     17247       1    1365    1043    1706     877
CTETRA     17248       1    2683    2260    7067    2460
CTETRA     17249       1    2132    2157     175    2394
CTETRA     17250       1    2156    3602     176     301
CTETRA     17251       1     175    2396    2394    2157
CTETRA     17252       1    1779    2133    1276    2394
CTETRA     17253       1    1188    2966    3129    3246
CTETRA     17254       1    2172    5623    5624    5548
CTETRA     17255       1    3366    3520    1536    3708
CTETRA     17256       1    3991    5473    5398    5397
CTETRA     17257       1    1851    2134    1850     176
CTETRA     17258       1    4092    5739    5740    5664
CTETRA     17259       1    5662     912    5738    5737
CTETRA     17260       1    2134    3018    2394    2396
CTETRA     17261       1    2465    4595    4578    4577
CTETRA     17262       1    1779    1536    2132    3812
CTETRA     17263       1      57    3387    5742    2192
CTETRA     17264       1    1267    2706    1268    1266
CTETRA     17265       1    2404    3259    2707    3366
CTETRA     17266       1    3870    3139    5896    1583
CTETRA     17267       1    2322    2323    3654    5158
CTETRA     17268       1    3803    3189    4581    4578
CTETRA     17269       1    1617    1420    1918    1780
CTETRA     17270       1    2706    2077     400    2699
CTETRA     17271       1    4104    5644    5568    5643
CTETRA     17272       1     618     214     213     153
CTETRA     17273       1    2873    2389    4053    3035
CTETRA     17274       1    4183    5644    5645    5569
CTETRA     17275       1    3233    5140    5132    5139
CTETRA     17276       1    2699    2711    3871    2267
CTETRA     17277       1    4180    5797    5722    5721
CTETRA     17278       1    3384    6746    6670    6745
CTETRA     17279       1    2706    1955    1266     400
CTETRA     17280       1    3416    5628    5629    5553
CTETRA     17281       1    1087     635    5350    5362
CTETRA     17282       1    1093    1091    3340    3218
CTETRA     17283       1    4069    2741    2011    2205
CTETRA     17284       1     691     690    3281     684
CTETRA     17285       1     691    1393    1909    1396
CTETRA     17286       1    1424    1419    1980    1511
CTETRA     17287       1    1173    5627    5702    5703
CTETRA     17288       1    3242    5628    5704    5629
CTETRA     17289       1    2934    3176    3429    3843
CTETRA     17290       1    1422    3496     685     691
CTETRA     17291       1    3930    5660    5585    5584
CTETRA     17292       1     691    1422    3496    1423
CTETRA     17293       1    5810    2621    5809    5734
CTETRA     17294       1    1491    2687    4835    6938
CTETRA     17295       1     691    1423    1396    1909
CTETRA     17296       1     691     690     684     692
CTETRA     17297       1    1379    1377    3328    3509
CTETRA     17298       1    4188    2111    3608    2084
CTETRA     17299       1    4816    1744    2685    1490
CTETRA     17300       1    3342    5745    5744    5820
CTETRA     17301       1    3188    3803    3189    4581
CTETRA     17302       1    1423    2442    3579    1421
CTETRA     17303       1    3458    3927    3275    3334
CTETRA     17304       1    2399    3751    2402    2403
CTETRA     17305       1    2196    2215    4546    4633
CTETRA     17306       1    2340    2901    3474    3258
CTETRA     17307       1    2993    2905    3454    2819
CTETRA     17308       1    2720    2424    3146    2631
CTETRA     17309       1    2110    4570    2111    4582
CTETRA     17310       1    3474    3258    4030    2095
CTETRA     17311       1    2399    3773    3474    4030
CTETRA     17312       1    3474    2096    2094    2095
CTETRA     17313       1    3539    3477    2471    2015
CTETRA     17314       1    4043    2927    5841    5916
CTETRA     17315       1    4105    4119    5767     326
CTETRA     17316       1    4161    5542    5618    5543
CTETRA     17317       1    3474    2309    2096    3751
CTETRA     17318       1    3158    2522    2193    3030
CTETRA     17319       1    2521    2520    2583    2582
CTETRA     17320       1    3202    5621    5545    5620
CTETRA     17321       1    3216    2237    2150    2249
CTETRA     17322       1    3158    2522    3030    4172
CTETRA     17323       1    3843    5631    5555    5630
CTETRA     17324       1    2521    2366    3962    2582
CTETRA     17325       1    1579    1779    1581    2568
CTETRA     17326       1     105    5631    5632    5556
CTETRA     17327       1    2520    2582    3962    2115
CTETRA     17328       1    2520    3962    2522    4172
CTETRA     17329       1    4162    5728    5652    5727
CTETRA     17330       1    2218    4580    4153    4551
CTETRA     17331       1    2509    2582    2552    2371
CTETRA     17332       1    3347    5727    5652    5651
CTETRA     17333       1    3888    5803    5728    5727
CTETRA     17334       1    1606    6442    6367    6366
CTETRA     17335       1    1490    4827    4828    4815
CTETRA     17336       1    2534    3903    2535    2807
CTETRA     17337       1     474    2684    2158    6953
CTETRA     17338       1    3690    6592    6517    6516
CTETRA     17339       1     471    4589    4591    4588
CTETRA     17340       1    3757    5032    5036    5038
CTETRA     17341       1    2417     618     213    1629
CTETRA     17342       1    2552    2513    2508    2509
CTETRA     17343       1    3402     985     860    1322
CTETRA     17344       1    5918    5843    5919    4055
CTETRA     17345       1    2206    4440    4457    4456
CTETRA     17346       1    4105    5768    5692    5767
CTETRA     17347       1    2016    2393    2713    4684
CTETRA     17348       1    3296    3721    5922    2879
CTETRA     17349       1    2685    2019    4828    1490
CTETRA     17350       1    2583    2520    2509    2582
CTETRA     17351       1    3215    5623    5548    5547
CTETRA     17352       1    4055    5843    5919    5844
CTETRA     17353       1     326    5842    5767    5766
CTETRA     17354       1    2690    2907    3226    1968
CTETRA     17355       1    2506    2507    2529    2624
CTETRA     17356       1    2040    5640    5641    5565
CTETRA     17357       1    2520    2509    2115    2508
CTETRA     17358       1    3538    3895    5944    5943
CTETRA     17359       1     818    3593     819    2551
CTETRA     17360       1    5793    2606    5718    5794
CTETRA     17361       1    6402    3115    6403     968
CTETRA     17362       1    3115    6403     968    3114
CTETRA     17363       1    2775    2777    4015     208
CTETRA     17364       1    3261    1505     831    2866
CTETRA     17365       1    2166    2205    4441    2206
CTETRA     17366       1    2065    5772    5697    5696
CTETRA     17367       1    3978    3991    5396    5471
CTETRA     17368       1    2166    4440    2206    4441
CTETRA     17369       1    3413    5701    5626    5625
CTETRA     17370       1     162    4862    4849    2408
CTETRA     17371       1    2065    5772    5773    5697
CTETRA     17372       1    2477    2700    2712    2017
CTETRA     17373       1    6404    3117    3145    3114
CTETRA     17374       1    4175    5725    5649    5724
CTETRA     17375       1    6403    3114    6328    6404
CTETRA     17376       1    2924    3545    1765    3857
CTETRA     17377       1    2541    1745    1744    1490
CTETRA     17378       1    4173    3606    5884    4189
CTETRA     17379       1    1002    4165    5874    5949
CTETRA     17380       1    4100    5952    6028    4058
CTETRA     17381       1    3114    3122    1969    3116
CTETRA     17382       1    2270    5013    4902    4903
CTETRA     17383       1    3119    3122    3114    3145
CTETRA     17384       1    3114    3118    3145    6478
CTETRA     17385       1    4169    5946    5871    5870
CTETRA     17386       1    3964    2465    3965    3189
CTETRA     17387       1    2925    6531    6456    6455
CTETRA     17388       1    3114    6403     968    6478
CTETRA     17389       1     997    1827    3133    2495
CTETRA     17390       1    3127    6524    6449    6448
CTETRA     17391       1     162    4839    4838    4851
CTETRA     17392       1     864    2122     673    2186
CTETRA     17393       1    2434    4050    2258    2257
CTETRA     17394       1    4184    5722    5646    5721
CTETRA     17395       1    3009    6675    6676    6600
CTETRA     17396       1    3221    2357    5802    3888
CTETRA     17397       1    3956    3955    3411    3545
CTETRA     17398       1    4164    4167    5792    2606
CTETRA     17399       1    1887    4165    5799    5874
CTETRA     17400       1    2355    2257    4051    4050
CTETRA     17401       1    3233    5133    5132    5140
CTETRA     17402       1    3277    5801    5725    5800
CTETRA     17403       1    3952    6449    6450    6374
CTETRA     17404       1    3009    6601    6526    6525
CTETRA     17405       1    3931     688    5251    3049
CTETRA     17406       1    2434    2435    2436    4050
CTETRA     17407       1    2354    1963    2439    1066
CTETRA     17408       1    2526    5330    2460    2422
CTETRA     17409       1    1212    1211    1708    2635
CTETRA     17410       1    2688    6025    5950    5949
CTETRA     17411       1    5949    1002    3679    5948
CTETRA     17412       1    6780    2239    6705    6781
CTETRA     17413       1    1374    1450     591    2938
CTETRA     17414       1    2627    2727    2626    2728
CTETRA     17415       1    3241    5779    5704    5703
CTETRA     17416       1    2206    3088    4456    4457
CTETRA     17417       1    3413    5700    5701    5625
CTETRA     17418       1    2626    2628    2746    2727
CTETRA     17419       1    2556    6003    2473    6002
CTETRA     17420       1    3287    4336    2074    4324
CTETRA     17421       1    2200    2058    3340    5774
CTETRA     17422       1    2205    2204    4460    4456
CTETRA     17423       1    1521    1522    1519    1523
CTETRA     17424       1    1521    1534    1524    4110
CTETRA     17425       1    1521    3886    3780    3388
CTETRA     17426       1    3825    5636    5560    5635
CTETRA     17427       1    3521    3837     979    3323
CTETRA     17428       1    3827    4185    4414    4410
CTETRA     17429       1    4040    3863    4091    2045
CTETRA     17430       1    3431    4399    3286    4401
CTETRA     17431       1    3817    5713    5714    5638
CTETRA     17432       1     968    3881    6476    6401
CTETRA     17433       1    2248    5134    5135    5124
CTETRA     17434       1    2045    5711    5712    5636
CTETRA     17435       1    1348    1148    1346    1519
CTETRA     17436       1    1819    3425    1531    2823
CTETRA     17437       1    1819    1152    1531    3425
CTETRA     17438       1    3425    1150    3886    1519
CTETRA     17439       1    3360    5638    5562    5637
CTETRA     17440       1    3079    3898    3175    3806
CTETRA     17441       1    3213    3355    5128    5120
CTETRA     17442       1    3857    3545    1765    3219
CTETRA     17443       1    3511    4016    4022    3508
CTETRA     17444       1    3886    3387     791    3342
CTETRA     17445       1    3534    2824    4016     539
CTETRA     17446       1     912    5661    1544    1545
CTETRA     17447       1    2428    4573    4594    2465
CTETRA     17448       1    3857    3955    3219    2686
CTETRA     17449       1    3733     539    1999    3534
CTETRA     17450       1    5817    2192    5741    5742
CTETRA     17451       1    1781    1782    3534    1999
CTETRA     17452       1    2919    5634    5558    5633
CTETRA     17453       1    6758    6891    5258    4889
CTETRA     17454       1     104    5481    1057    5406
CTETRA     17455       1    3034    5489    5565    5490
CTETRA     17456       1    3508    4016    4022     631
CTETRA     17457       1    1515    5043    5054    5052
CTETRA     17458       1    3593    4414    4413    4420
CTETRA     17459       1    2900    6474    6550    6475
CTETRA     17460       1    3534    3511    1786    3508
CTETRA     17461       1    3517    3534    3511    1786
CTETRA     17462       1    2526    1085    5332    5344
CTETRA     17463       1    2336    2365    2335    2447
CTETRA     17464       1    3167    3168    3169    3183
CTETRA     17465       1    2098    4404    4321    4322
CTETRA     17466       1    3857    2459    2924    3859
CTETRA     17467       1    2366    3491    2522    3962
CTETRA     17468       1    2922    2173    5783    3844
CTETRA     17469       1    3634    2366    3200    4017
CTETRA     17470       1    2273    1161    1139    2272
CTETRA     17471       1    2366    4017    3962    2367
CTETRA     17472       1    2519    2863    2583    2520
CTETRA     17473       1    1446     314    3156     816
CTETRA     17474       1    3133     796    1004    1827
CTETRA     17475       1    2260    6943    6942    5308
CTETRA     17476       1    3923    5965    5966    5890
CTETRA     17477       1    1829    3071    3328    1825
CTETRA     17478       1    3301    5813    5737    5812
CTETRA     17479       1     791    3387    5892    5893
CTETRA     17480       1    2158    2407     474    7067
CTETRA     17481       1    2755    1571    2784    2257
CTETRA     17482       1    1085    5336    2563    5335
CTETRA     17483       1     806    1880    1845    1461
CTETRA     17484       1    2729    2140    1537    2849
CTETRA     17485       1    1399    1849    1446     176
CTETRA     17486       1    1446    3662     176     816
CTETRA     17487       1    1370    2671    1568    1573
CTETRA     17488       1    2841    2840    6039    3897
CTETRA     17489       1    2755    2785    2784    3300
CTETRA     17490       1    1883    2135    4190    1882
CTETRA     17491       1    5632     681    2922    5707
CTETRA     17492       1    1835    1837    1836    2436
CTETRA     17493       1    3969    3426    6396    6395
CTETRA     17494       1    2088    4191    6396    3969
CTETRA     17495       1    3857    1291    3956    2704
CTETRA     17496       1    4180    5723    5647    5722
CTETRA     17497       1    2392    3525    5137    4909
CTETRA     17498       1    2035    4313    4539    4540
CTETRA     17499       1    3969    3426    6395    3645
CTETRA     17500       1    2815    4169    5946    5871
CTETRA     17501       1     930    4904    5073    4905
CTETRA     17502       1    1887    5798    5873    5874
CTETRA     17503       1    3260    4153    2813    1028
CTETRA     17504       1    1390    3525    4908    5116
CTETRA     17505       1    5720    5795    3709    5796
CTETRA     17506       1    6399    2899    3076    6400
CTETRA     17507       1    1973    3426    3969    3645
CTETRA     17508       1    2673    1084    3969    2670
CTETRA     17509       1    3076    6399    6324    6323
CTETRA     17510       1    3821    6016    5941    5940
CTETRA     17511       1     606    2277    3426    3969
CTETRA     17512       1    4539    2904     471    4591
CTETRA     17513       1    3969    4191    2670    1084
CTETRA     17514       1    2334    2488    2335    1941
CTETRA     17515       1    2487     659    2489    3698
CTETRA     17516       1    2487     656    4166    3379
CTETRA     17517       1    3347    5650    5726    5651
CTETRA     17518       1    2474     970    2038    3788
CTETRA     17519       1    3299    1028    2053    3222
CTETRA     17520       1    4165    4192    5950    2688
CTETRA     17521       1    3347    5726    5650    5725
CTETRA     17522       1    1497    6328    6253    6252
CTETRA     17523       1    2055    2335    1941    2486
CTETRA     17524       1    4185    3593    4414    2557
CTETRA     17525       1    3117    3116    6329    6254
CTETRA     17526       1    3605    5885    5961    5886
CTETRA     17527       1    6556    1005    6631    6555
CTETRA     17528       1     665    2306     666    4921
CTETRA     17529       1    2055    1435    2335    2057
CTETRA     17530       1    2348    4998    4917    5010
CTETRA     17531       1    2283    6557    6558    6482
CTETRA     17532       1     664    1607    2878    5024
CTETRA     17533       1    3888    5802    5878    5803
CTETRA     17534       1     639    2212    5311    5310
CTETRA     17535       1    2489    4122    3786    2377
CTETRA     17536       1    2489    4122    3697    2160
CTETRA     17537       1    2660    2489    3487    3697
CTETRA     17538       1    2386    3297    1931    2391
CTETRA     17539       1    2660    2489    3697    3698
CTETRA     17540       1     945    3185    5027    1440
CTETRA     17541       1    4144    5719    5643    5718
CTETRA     17542       1    4099    2688    6025    2689
CTETRA     17543       1     818    2866    2867    2551
CTETRA     17544       1    1647    1631    3594    3211
CTETRA     17545       1    1009    4156    5795    4170
CTETRA     17546       1    1009    5795    5720    5719
CTETRA     17547       1    1631    3072    1642    1633
CTETRA     17548       1    4018    4019    6162    3173
CTETRA     17549       1    1476    6376    6451    6452
CTETRA     17550       1    3212    3012    3211    3011
CTETRA     17551       1    3072    1641    1778    1777
CTETRA     17552       1    3515    3012    2586    2752
CTETRA     17553       1    2328    1018    1647    1962
CTETRA     17554       1    3056     703    1307    1368
CTETRA     17555       1    3382    5225    5224    5279
CTETRA     17556       1    2749    3212    3012    3911
CTETRA     17557       1    2058    5775    5700    5699
CTETRA     17558       1    1473    1891    4868    4856
CTETRA     17559       1    1473    2408    4871    4877
CTETRA     17560       1    4183    5719    5720    5644
CTETRA     17561       1    7051    7052    4877    4870
CTETRA     17562       1    2411    2412    4407    4410
CTETRA     17563       1    6595    3916    2401    6520
CTETRA     17564       1    1473    1474    4867    1891
CTETRA     17565       1    3365    3175    2930    3047
CTETRA     17566       1    2410    2221    2411    4406
CTETRA     17567       1    2541    1744    4801    1490
CTETRA     17568       1     688    5246    5245    5250
CTETRA     17569       1    1473    1891    4867    4868
CTETRA     17570       1    4183    5720    5645    5644
CTETRA     17571       1    1473    2570    4871    2408
CTETRA     17572       1    1473    2408    4877    4879
CTETRA     17573       1    1473    1474    1891    2408
CTETRA     17574       1    2954    1305    1597    2499
CTETRA     17575       1    5728    4130    4162    5729
CTETRA     17576       1    1487    6375    6376    6300
CTETRA     17577       1    2052    3740    2053    4471
CTETRA     17578       1    6336    1578     341    6411
CTETRA     17579       1    2787    2786     685    1620
CTETRA     17580       1    1640    1620    2786    2774
CTETRA     17581       1    2786    3868    2774    2775
CTETRA     17582       1    1514    1597    1418    1965
CTETRA     17583       1     685     684    2787    1641
CTETRA     17584       1    2762     708    2444    3868
CTETRA     17585       1    3857    1291    2704    2692
CTETRA     17586       1     528    6111    6112    6036
CTETRA     17587       1    4788     284    4789     342
CTETRA     17588       1    4130    5654    5730    5655
CTETRA     17589       1    3189    3305    4579    4587
CTETRA     17590       1    2541    2687    4811     342
CTETRA     17591       1     472    3264    3305    2904
CTETRA     17592       1     304    1598     303    1609
CTETRA     17593       1    2099    1609    3389     303
CTETRA     17594       1    4817    1744    4805    1743
CTETRA     17595       1    5812    2178    5811    5736
CTETRA     17596       1    1540    2021    2163    1542
CTETRA     17597       1    2179    5735    5810    5811
CTETRA     17598       1    3965    4600    4587    4595
CTETRA     17599       1    6041    3794    2143    3623
CTETRA     17600       1    2841    6039    2840    6114
CTETRA     17601       1    3965    4595    4587    4578
CTETRA     17602       1    2099     303     622     910
CTETRA     17603       1    3241    5853    5854    5778
CTETRA     17604       1    2185     792    4291    6946
CTETRA     17605       1    2099    2647     898     918
CTETRA     17606       1    2166    4431    4430    4451
CTETRA     17607       1    2099    3959     163     910
CTETRA     17608       1    2099     163    3959     918
CTETRA     17609       1    1680    3551    1679    3238
CTETRA     17610       1    3325    5780    5781    5705
CTETRA     17611       1    1680    3238    3236    3551
CTETRA     17612       1    1487    6376    6377    6301
CTETRA     17613       1    4091    5787    5788    5712
CTETRA     17614       1    3422    3042    4385    4384
CTETRA     17615       1    3175    4394    2930    4319
CTETRA     17616       1    2478    3322    3401    4193
CTETRA     17617       1    3631     814    2368     801
CTETRA     17618       1    3183    3169    3182    3192
CTETRA     17619       1    2606    5792    5793    5717
CTETRA     17620       1     680    5262    5259    5261
CTETRA     17621       1    2368    3179     846    1403
CTETRA     17622       1    2929    5092    5043    5042
CTETRA     17623       1     814    3845    3738    3551
CTETRA     17624       1    1680    2524     815    3822
CTETRA     17625       1    3857    2459    1291    2692
CTETRA     17626       1    3238    3325    3236    3551
CTETRA     17627       1    2922    5783    5708    5707
CTETRA     17628       1    6083     798    6084     799
CTETRA     17629       1     822    2139    3631    3220
CTETRA     17630       1     822    2138    6085    2733
CTETRA     17631       1     822    2733     799     846
CTETRA     17632       1    2052    4542    3740    4471
CTETRA     17633       1     822    3631     798    3220
CTETRA     17634       1     822     801    3631     846
CTETRA     17635       1    2045    5711    5787    5712
CTETRA     17636       1    3538    3895    5869    5944
CTETRA     17637       1    3601    3144    3547    3824
CTETRA     17638       1    2673    2674    3969    2088
CTETRA     17639       1    2198    3043    4318    4390
CTETRA     17640       1    3601    3583    3924    3584
CTETRA     17641       1    3047    4407    2410    2412
CTETRA     17642       1    3601    2265    3824    3547
CTETRA     17643       1    2189    4953    4918    4952
CTETRA     17644       1    2427    5051    5053    5050
CTETRA     17645       1    3601    3547    3583    3584
CTETRA     17646       1    2915    2920    3656    1951
CTETRA     17647       1     912    5738    5663    5662
CTETRA     17648       1    2454    2455    6191    6190
CTETRA     17649       1    3263    4068    2540    1504
CTETRA     17650       1    2393    2203    1339    3263
CTETRA     17651       1    3605    2178    2179    5886
CTETRA     17652       1    2622    5732    5733    5657
CTETRA     17653       1    2915    3908    2982    3988
CTETRA     17654       1    2465    3965    3189    4578
CTETRA     17655       1    2915    3989    3908    4080
CTETRA     17656       1     709    2915    2917    1951
CTETRA     17657       1    2915    2918    3908    3989
CTETRA     17658       1    4090    6109    6034    6033
CTETRA     17659       1    4149    5882    5958    5883
CTETRA     17660       1    4184    5721    5646    5645
CTETRA     17661       1    2620    5807    5808    5732
CTETRA     17662       1    3880    1453    4158    3115
CTETRA     17663       1    2465    3965    4578    4595
CTETRA     17664       1     471    4602    2407    2406
CTETRA     17665       1    1744    4792     128    4791
CTETRA     17666       1    2915    4080    3908    3988
CTETRA     17667       1    1328    2863    2534    2807
CTETRA     17668       1    2350    2057     656    2486
CTETRA     17669       1    1699    3488    3379    2487
CTETRA     17670       1    2017    2713    4669    4683
CTETRA     17671       1    2896    3197     158    3022
CTETRA     17672       1    2231    4124    2896    3379
CTETRA     17673       1     822    6010    3220    6009
CTETRA     17674       1    3843    5706    5630    5705
CTETRA     17675       1    3861    4333    4398    4334
CTETRA     17676       1    3845    5932    5933    5857
CTETRA     17677       1    1436    2521    2365    2352
CTETRA     17678       1    3263    4289    3088    3089
CTETRA     17679       1    3847    2659    1752    1716
CTETRA     17680       1       7    6714    6639    6638
CTETRA     17681       1    1998    5042    5052    4893
CTETRA     17682       1    2154    5091    5110    5111
CTETRA     17683       1    1752    1730    1720    1723
CTETRA     17684       1     873    3461    5763    5762
CTETRA     17685       1    1760    5693    5694    5618
CTETRA     17686       1    1714    2629    2727    2627
CTETRA     17687       1    4113    5696    5621    5620
CTETRA     17688       1    1860    2630    2635    1752
CTETRA     17689       1     592    1851    3298     472
CTETRA     17690       1    4688     831     792    4291
CTETRA     17691       1    2893    5917    5993    2553
CTETRA     17692       1    5767    5843     325    4119
CTETRA     17693       1    5999    2879    2152    3004
CTETRA     17694       1    1752    3146    2630    1720
CTETRA     17695       1    3387    5818    5817    5893
CTETRA     17696       1    1621    6515    3873    1605
CTETRA     17697       1    2431    5771    5696    5695
CTETRA     17698       1    3214    3438    3215    2064
CTETRA     17699       1    1744    1490    4814    4801
CTETRA     17700       1    3263    1505    4068    1504
CTETRA     17701       1    2766    3349    3553    3529
CTETRA     17702       1    2765    2766    2603    3529
CTETRA     17703       1    2717    2759    2324    3761
CTETRA     17704       1    1600    3474    2309    3469
CTETRA     17705       1    4083    4102    2246    6044
CTETRA     17706       1    3888    5802    5803    5727
CTETRA     17707       1    3887    5804    5805    5729
CTETRA     17708       1    2767    2955    3455    3484
CTETRA     17709       1    3638    6468    6469    6393
CTETRA     17710       1    3263    2393    4068    1339
CTETRA     17711       1    3305    3304    4588    4587
CTETRA     17712       1    1440    5027    4995    4994
CTETRA     17713       1    2082    2593    4300    4781
CTETRA     17714       1    1751    1256    1254    1817
CTETRA     17715       1    4129    4094    2678    3457
CTETRA     17716       1    4139    4119    5769    5694
CTETRA     17717       1    4113    5696    5697    5621
CTETRA     17718       1    3261    1505    3263     831
CTETRA     17719       1    4129    3346    3666    4095
CTETRA     17720       1    1490    4816    1744    4815
CTETRA     17721       1    5854    5853    3949    5929
CTETRA     17722       1     810     800    2571    1178
CTETRA     17723       1    3346    1882    1879    3493
CTETRA     17724       1     607     300     301     608
CTETRA     17725       1    4014    6078    2569    6153
CTETRA     17726       1    1172    5778    5703    5702
CTETRA     17727       1    2711    3448    2712    2700
CTETRA     17728       1    4132    2739    5995    5996
CTETRA     17729       1    4034    5848    5773    5772
CTETRA     17730       1    1506    4688    1504     792
CTETRA     17731       1    4189    3451    4149    4173
CTETRA     17732       1    1844    3209    3157    1840
CTETRA     17733       1    6484    2284    1577    6559
CTETRA     17734       1    4000    3748    3589    4037
CTETRA     17735       1    1149    1151    1150    1148
CTETRA     17736       1    3222    4552    4537    4469
CTETRA     17737       1    5724    4147    3277    5799
CTETRA     17738       1    4149    1985    4189    1469
CTETRA     17739       1    3079    3080    2061    3207
CTETRA     17740       1    4149    6034    5958    6033
CTETRA     17741       1    4175    5649    5725    5650
CTETRA     17742       1    4147    5799    5724    5723
CTETRA     17743       1    2189    3641    3449    4918
CTETRA     17744       1    3572    3171    2946    6712
CTETRA     17745       1    1009    2606    5869    5794
CTETRA     17746       1    3079    3081    3806    3080
CTETRA     17747       1    1555    3080    3207    3152
CTETRA     17748       1    4146    5005    5006    5002
CTETRA     17749       1    1844    3365    3079    3157
CTETRA     17750       1    3426    6545    6546    6470
CTETRA     17751       1    3118    6553    6478    6477
CTETRA     17752       1    4091    5637    5713    5638
CTETRA     17753       1    2817     189    4134    3525
CTETRA     17754       1    3713    3758    3373    3797
CTETRA     17755       1    3713    3758    3095    3373
CTETRA     17756       1    2656    3713    3712     552
CTETRA     17757       1    4815    1490    4814    1744
CTETRA     17758       1    2058    5774    5775    5699
CTETRA     17759       1    2885    2166    3497    4430
CTETRA     17760       1    3712    2656    3636    3967
CTETRA     17761       1    2867    4429    4428    4457
CTETRA     17762       1    3713    3797    3383    3712
CTETRA     17763       1    2200    5850    5775    5774
CTETRA     17764       1    4149    4112    5957    5882
CTETRA     17765       1    2574    2610    6223    6148
CTETRA     17766       1    1744     128    4789    4790
CTETRA     17767       1    5849    2152    2879    2200
CTETRA     17768       1     554    3797    3712    3856
CTETRA     17769       1    3118    6552    6553    6477
CTETRA     17770       1     993    3807     999    1031
CTETRA     17771       1    1803    3249    1804    1806
CTETRA     17772       1    1804    3106    3340    1806
CTETRA     17773       1    4180    5797    5721    5796
CTETRA     17774       1    5775    2058    1804    2200
CTETRA     17775       1     968    6478    6403    6402
CTETRA     17776       1    4180    5798    5723    5722
CTETRA     17777       1    3537    2285    6018    6017
CTETRA     17778       1    2052    4542    4543    4541
CTETRA     17779       1    3222    4153    1028    4537
CTETRA     17780       1    2824    2361    2425    2004
CTETRA     17781       1    1806    3243    1804    3106
CTETRA     17782       1    1744     128    4790    4791
CTETRA     17783       1    1589    1591    1378    3511
CTETRA     17784       1    3533    3037    1774    1088
CTETRA     17785       1    3115    6402    6327    6326
CTETRA     17786       1    3173    2733    6236    6161
CTETRA     17787       1    4165    5875    5874    5950
CTETRA     17788       1    1774    1088    3037    3039
CTETRA     17789       1    3036    3035    3037    3832
CTETRA     17790       1    1773    3037    3035    3039
CTETRA     17791       1    3741    3375    3233    5133
CTETRA     17792       1    2280    3908     928    2991
CTETRA     17793       1    3818    5716    5641    5640
CTETRA     17794       1    4080    3988    2281    2280
CTETRA     17795       1    4167    5716    5717    5641
CTETRA     17796       1    4167    5717    5642    5641
CTETRA     17797       1     105    5481    5557     107
CTETRA     17798       1     966    3988    2982    2280
CTETRA     17799       1    2606    5868    3538    5869
CTETRA     17800       1    2915    3908    2918    2920
CTETRA     17801       1    2915    4080    2916    3989
CTETRA     17802       1    4149    5883    4173    4112
CTETRA     17803       1     928    2920    3364    3908
CTETRA     17804       1    4102    3787    3785    5969
CTETRA     17805       1    3569    3897    5889    5888
CTETRA     17806       1    2107    2959    4270    4271
CTETRA     17807       1    1737    3588    3961    3046
CTETRA     17808       1    3850    5735    5660    5659
CTETRA     17809       1    1545    5735    5736    5660
CTETRA     17810       1    1730    2109    2111    3803
CTETRA     17811       1    3398    3840    3399    2031
CTETRA     17812       1    1737    3755    3585    3961
CTETRA     17813       1    1173    5701    5702    5626
CTETRA     17814       1    3398    3711    3755    3841
CTETRA     17815       1    2885    2166    4440    2206
CTETRA     17816       1    5701    1171    1172    5776
CTETRA     17817       1    3241    5778    5779    5703
CTETRA     17818       1     798    3220    6008    6009
CTETRA     17819       1    2107    4270    2959    4275
CTETRA     17820       1    3755    1607    3961    3841
CTETRA     17821       1    3755    1608    3961    1607
CTETRA     17822       1    3569    3934    5814    5889
CTETRA     17823       1    3674     642    2683    4084
CTETRA     17824       1    4149    5883    4112    5882
CTETRA     17825       1    4603    2395    4600    3304
CTETRA     17826       1    3906    3915    5914    5913
CTETRA     17827       1    3755    3961    1608    3585
CTETRA     17828       1    3755    3345    3960    3757
CTETRA     17829       1    2231    2896    4124    2230
CTETRA     17830       1    1266    2681    2706    2699
CTETRA     17831       1    5964    5965    3897    5889
CTETRA     17832       1     988    2145    2771    2147
CTETRA     17833       1     774     776    1034    1698
CTETRA     17834       1    5635    3629    2045    5710
CTETRA     17835       1    3727     776    4123    3684
CTETRA     17836       1    3410    3955    2908    3957
CTETRA     17837       1    2487    4166     657    3834
CTETRA     17838       1    2107    2890    4275    2959
CTETRA     17839       1    2045    5786    5711    5710
CTETRA     17840       1    2771    2147    2145    2605
CTETRA     17841       1    2234    5111    5092    5091
CTETRA     17842       1    1997    4894    4893    5228
CTETRA     17843       1    1128     579    1355     566
CTETRA     17844       1    3037    1548    1089    3536
CTETRA     17845       1    1548    6306    6307    6231
CTETRA     17846       1    1589    3511    1786    3517
CTETRA     17847       1    1718    3035    3036    3294
CTETRA     17848       1     593    2995    3696    3411
CTETRA     17849       1    2461    1246    1248    1901
CTETRA     17850       1    4148    6232    6307    6308
CTETRA     17851       1    4153    3190    2813    4592
CTETRA     17852       1    3037    2925    1088    1550
CTETRA     17853       1    2228    6385    6386    6310
CTETRA     17854       1    4148    6383    6308    6307
CTETRA     17855       1    3036    3832    3294    3035
CTETRA     17856       1    3396    4951    4963    4952
CTETRA     17857       1    2349    2352    2365    2366
CTETRA     17858       1     240    4948    4949    4943
CTETRA     17859       1    2336    2372    2449    2374
CTETRA     17860       1    1562    4933     478    4937
CTETRA     17861       1    2336    2490    2486    2350
CTETRA     17862       1    2336    2335    2351    2350
CTETRA     17863       1    4194    2890    2107    2959
CTETRA     17864       1    4166     158    3379     656
CTETRA     17865       1    2420    5389    5390    5377
CTETRA     17866       1    2054    2231     775    2230
CTETRA     17867       1    5858    5859    3845    5783
CTETRA     17868       1    3102    3094    3093    2573
CTETRA     17869       1    2057     158    2896    3197
CTETRA     17870       1    3043    4317    2222    4405
CTETRA     17871       1    3786    2377    1941    2489
CTETRA     17872       1    2055     659     656    2486
CTETRA     17873       1    3896    2850    2852    3817
CTETRA     17874       1    5714    5713    3817    5789
CTETRA     17875       1    4408    2517    4417    4313
CTETRA     17876       1    2922    5784    5709    5708
CTETRA     17877       1    2173    5709    5785    5710
CTETRA     17878       1    2853    2041    2854    2852
CTETRA     17879       1    2854    3361    3360    3315
CTETRA     17880       1    1765    5130    5134    4899
CTETRA     17881       1    3844    5857    5858    5782
CTETRA     17882       1    3175    4319    3047    2412
CTETRA     17883       1    3817    5638    5714    5639
CTETRA     17884       1    2420    5388    5389    5376
CTETRA     17885       1    6760    4889     623    6889
CTETRA     17886       1    2854    3816    2852    2041
CTETRA     17887       1    2854    2183    4171    2182
CTETRA     17888       1    3413    5700    2058    1804
CTETRA     17889       1    3085    5851    5852    5776
CTETRA     17890       1    2853    2182    1573    2854
CTETRA     17891       1    1087    1059    1552    5361
CTETRA     17892       1    2178    5886    5887    5811
CTETRA     17893       1    3606    5885    5809    5884
CTETRA     17894       1    2853    2852    2851    2041
CTETRA     17895       1    4189    5959    5884    5883
CTETRA     17896       1    1563    4575    3070    4614
CTETRA     17897       1    1829    1798     749     751
CTETRA     17898       1    1520    1403    1646    3178
CTETRA     17899       1    2905    5961    6036    6037
CTETRA     17900       1     750     749    1798     751
CTETRA     17901       1    3410    2789    3957    2511
CTETRA     17902       1    2276    3498    3652    2278
CTETRA     17903       1     640    2868    2555    6945
CTETRA     17904       1    3500    2276    1830    1798
CTETRA     17905       1    1830    3470    3472    3512
CTETRA     17906       1    3031    3511    3517    3512
CTETRA     17907       1     135     744     133    6856
CTETRA     17908       1    4156    5872    5797    5796
CTETRA     17909       1    6018    5943    6019    2285
CTETRA     17910       1    2537    4873    4874    4875
CTETRA     17911       1    3864    3222    4552    4153
CTETRA     17912       1    4180    5798    5722    5797
CTETRA     17913       1    3211    3005    4039    2300
CTETRA     17914       1     228    4920    4950    4951
CTETRA     17915       1    5805    5880    3887    4111
CTETRA     17916       1    3895    6020    5945    5944
CTETRA     17917       1    6177    1497    3172    1432
CTETRA     17918       1    5192    3655    2897    5205
CTETRA     17919       1    6488    3063     341    6413
CTETRA     17920       1    3211    3210    2300    3597
CTETRA     17921       1     241     228    4944    4950
CTETRA     17922       1    1887    5874    5799    5798
CTETRA     17923       1    2329    3210    3211    3597
CTETRA     17924       1    1631    3911    1632    4039
CTETRA     17925       1    3211    1606    4039    3717
CTETRA     17926       1    3490    3152    3928    1841
CTETRA     17927       1    4039    1631    3911    3211
CTETRA     17928       1     158     132     159    3022
CTETRA     17929       1    1606    6517    6442    6441
CTETRA     17930       1    3411     593    4186    3696
CTETRA     17931       1    1009    5795    5719    5794
CTETRA     17932       1    2131    5271    5272    5265
CTETRA     17933       1    1857     634     635    1552
CTETRA     17934       1    4058    4192    5952    5877
CTETRA     17935       1    5343    2526    6911    5331
CTETRA     17936       1    1631    3211    4039    3717
CTETRA     17937       1    2118    2908    3411    4186
CTETRA     17938       1     158    3734     240    4195
CTETRA     17939       1     158    3197    4005     132
CTETRA     17940       1    3301    5813    5738    5737
CTETRA     17941       1    2840    2376    6114    6113
CTETRA     17942       1    5813    5814    3301    5738
CTETRA     17943       1    2178    5887    5888    5812
CTETRA     17944       1     158    4026    4166    4195
CTETRA     17945       1     171    2418    2423     170
CTETRA     17946       1    2988    3775    2989    3774
CTETRA     17947       1    4091    5713    5637    5712
CTETRA     17948       1    2988    3590    2989    3775
CTETRA     17949       1    3819    3499    4426    4425
CTETRA     17950       1    5480    5479    2921    3176
CTETRA     17951       1    3485     593    4186    2118
CTETRA     17952       1    1971    3432    2806     168
CTETRA     17953       1     168    2806    4088    2068
CTETRA     17954       1    1691    2547    3549    2781
CTETRA     17955       1    3949    5854    5855    5779
CTETRA     17956       1    3490    2551     586    2168
CTETRA     17957       1    3085    5927    5851    5926
CTETRA     17958       1    3398    3840    2031    3711
CTETRA     17959       1    3840    3000     995    2359
CTETRA     17960       1    3840     995    3000    3866
CTETRA     17961       1    3840    3711    3380    3000
CTETRA     17962       1    1759    4161    5617    1760
CTETRA     17963       1    3840    3841    3380    3711
CTETRA     17964       1    3243    1172    3249    1171
CTETRA     17965       1    2300    6368    6444    3005
CTETRA     17966       1    3240    4176    3241    1172
CTETRA     17967       1    3116    6404    6329    6328
CTETRA     17968       1    3078    3085    3243    3106
CTETRA     17969       1    4039    6367    6368    6292
CTETRA     17970       1    3078    3086    3085    3106
CTETRA     17971       1    2692    5197    5194    5196
CTETRA     17972       1    1857    1085    1087     636
CTETRA     17973       1    2205    2874    4460    2204
CTETRA     17974       1    2079    2593     793    4596
CTETRA     17975       1    3181    3078    3240    3243
CTETRA     17976       1    1238    3214    3436    3216
CTETRA     17977       1    3435    3436    1216    1215
CTETRA     17978       1    3380    5023    5029    5028
CTETRA     17979       1    3278    3757    3755    3185
CTETRA     17980       1    1087    1059    5361    5360
CTETRA     17981       1    4173    5883    5884    5808
CTETRA     17982       1    5806    4111    4112    5881
CTETRA     17983       1    1607    5030    5024    5028
CTETRA     17984       1    4591    4539    4589     471
CTETRA     17985       1    1238    3476    1755    4125
CTETRA     17986       1    3312    1238    3977    4182
CTETRA     17987       1    1238    4125    3312    4126
CTETRA     17988       1    1293    2897    2704    5193
CTETRA     17989       1    1238    3476    1758    1755
CTETRA     17990       1    6367    3717    6291    6292
CTETRA     17991       1    2118    1894    2908    2639
CTETRA     17992       1     723    6467    6392    6391
CTETRA     17993       1    3867    5866    5791    5790
CTETRA     17994       1    2571    1178    6157    6156
CTETRA     17995       1    3309    6571    4017    3634
CTETRA     17996       1    4191    6396    6397    6321
CTETRA     17997       1    2557    4413    4416    4415
CTETRA     17998       1    3645    6395    6319    6394
CTETRA     17999       1     255    1758    1238    3476
CTETRA     18000       1    2485    1091    1805    1824
CTETRA     18001       1    3818    5791    5716    5715
CTETRA     18002       1    5791    4167    5716    5792
CTETRA     18003       1    2606    5793    5718    5717
CTETRA     18004       1    4144    5643    5719    5644
CTETRA     18005       1    1468    1985    2651    4149
CTETRA     18006       1    4189    5958    5959    5883
CTETRA     18007       1    1470    1483    1986    1464
CTETRA     18008       1    1983    1987    1468    1985
CTETRA     18009       1    3888    5803    5804    5728
CTETRA     18010       1     636    1857     634     635
CTETRA     18011       1    5355    1995    6913    1857
CTETRA     18012       1    3224    6182    6107    6106
CTETRA     18013       1    2740    3564    3664    3666
CTETRA     18014       1    1468    4149    2364    2375
CTETRA     18015       1    1470    3224    1467    2375
CTETRA     18016       1    1470    1468    1986    2375
CTETRA     18017       1    4149    5957    6033    5958
CTETRA     18018       1    3530    3333    3563    3722
CTETRA     18019       1    3443    3168    3192    3169
CTETRA     18020       1    3889    5879    5804    5803
CTETRA     18021       1    2178    5887    5812    5811
CTETRA     18022       1    4111    5880    5881    5805
CTETRA     18023       1    3889    5954    5878    5953
CTETRA     18024       1     155     703    3124    3125
CTETRA     18025       1    1484    1704    6105    4087
CTETRA     18026       1    2795    4135    3120     889
CTETRA     18027       1    3722    3530    3888    3563
CTETRA     18028       1    3714    3428    3655    3804
CTETRA     18029       1     326    5842    5766    5841
CTETRA     18030       1    3655    3804    4044    3714
CTETRA     18031       1    3804     231     155    4044
CTETRA     18032       1    3804    3654    1368    2323
CTETRA     18033       1    3804    3714    3125     231
CTETRA     18034       1    1816    2978    2965    2962
CTETRA     18035       1    2173    5859    5784    5783
CTETRA     18036       1    3411    3956    3696    4186
CTETRA     18037       1    4018    6161    3173    6162
CTETRA     18038       1    5560    5559    3825    5635
CTETRA     18039       1    1476    2250    1488    6377
CTETRA     18040       1    3309    2116    6572    6573
CTETRA     18041       1    3867    5865    5790    5789
CTETRA     18042       1    5642    4144    5643    5718
CTETRA     18043       1    1715    3188    3847    2218
CTETRA     18044       1    2483    1818    2969    1856
CTETRA     18045       1    2969    2007    2500    2482
CTETRA     18046       1    1533    3308    1540    2023
CTETRA     18047       1    1533    1534    3456    3972
CTETRA     18048       1    1476    6452    6377    6376
CTETRA     18049       1    4105    5768    5693    5692
CTETRA     18050       1    1533    2979    1540    3308
CTETRA     18051       1    1540    1525    2964    1533
CTETRA     18052       1    1533    2979    2962    2964
CTETRA     18053       1    2926    6066    5991    6926
CTETRA     18054       1    3158    4172    2520    2522
CTETRA     18055       1    1788    6141    6925    6924
CTETRA     18056       1    4027    5972    4082    6047
CTETRA     18057       1    3778    5226    5238    5225
CTETRA     18058       1     325    4054    4133    4119
CTETRA     18059       1    2893    5992    5916    5991
CTETRA     18060       1    3158    2567     934    3576
CTETRA     18061       1     373    6768    6692    6767
CTETRA     18062       1    1002    5872    1887    2815
CTETRA     18063       1    3888    5878    5802    5877
CTETRA     18064       1    4149    5957    2375    6032
CTETRA     18065       1    1764    1486    1833     852
CTETRA     18066       1    2753    3864    3132    3830
CTETRA     18067       1    3940    6029    5953    6028
CTETRA     18068       1    1002    5949    5874    5873
CTETRA     18069       1    2987    2989    2990    2664
CTETRA     18070       1    2519    2807    2534    2863
CTETRA     18071       1    3504    6383    6459    6384
CTETRA     18072       1    2862    4196    3791    3576
CTETRA     18073       1    1608    5032    5033    5030
CTETRA     18074       1    2862    3791    4196    3341
CTETRA     18075       1    1329    2863    2862    2567
CTETRA     18076       1    3721    5846    5847    5771
CTETRA     18077       1    4055    5995    5920    5919
CTETRA     18078       1    1400    3179    1404    3631
CTETRA     18079       1    2526    1085    2563    5332
CTETRA     18080       1    2065    5771    5772    5696
CTETRA     18081       1    2671    1964    1836    2258
CTETRA     18082       1    1908    4289    4290    4686
CTETRA     18083       1    3179    1404    2139    3191
CTETRA     18084       1    2212    2563    5321    5308
CTETRA     18085       1    4034    5847    5848    5772
CTETRA     18086       1    3670    5856    5781    5780
CTETRA     18087       1    3563    2652    4111    3722
CTETRA     18088       1    2460    6952    5318    6953
CTETRA     18089       1    3179    3191    1403    1404
CTETRA     18090       1    3970    4113    1185    2065
CTETRA     18091       1    3179    1403    2138     846
CTETRA     18092       1    3179    2139    1404    3631
CTETRA     18093       1    4153    4537    4552    4592
CTETRA     18094       1    4165    5874    5875    5799
CTETRA     18095       1    1863    3616    2865    2815
CTETRA     18096       1    3264    3847    3190    4153
CTETRA     18097       1    3617    2865    3616    1052
CTETRA     18098       1    1918    3984    1906    2891
CTETRA     18099       1    3617    1052    3679    2865
CTETRA     18100       1    4192    5952    5877    5876
CTETRA     18101       1    3679    6098    6099    6023
CTETRA     18102       1     135    6792    4957    4945
CTETRA     18103       1     943    5005    5002    4996
CTETRA     18104       1    1003      80    1575    1065
CTETRA     18105       1    3617    1863    3616    2865
CTETRA     18106       1    6459    6460    1502    3504
CTETRA     18107       1    2228    6387    6311    6386
CTETRA     18108       1    3344    2148    3632    3386
CTETRA     18109       1    3055    3391    2321    2322
CTETRA     18110       1    6460    4116    3504    6385
CTETRA     18111       1    2330    2331    4138    2332
CTETRA     18112       1    4052    6200    6124    6199
CTETRA     18113       1    2331    4138    2332    2857
CTETRA     18114       1    3563    2652    3722    3333
CTETRA     18115       1    2857    4187    4138    2332
CTETRA     18116       1    1883    2331    2857    2135
CTETRA     18117       1    2854    1573    3361    1569
CTETRA     18118       1    2905    5963    5887    5962
CTETRA     18119       1    3069    4558    3338    4555
CTETRA     18120       1    2825    6120    2072    6121
CTETRA     18121       1    1573    2852    3896    2850
CTETRA     18122       1    1836    2258    1964    2436
CTETRA     18123       1    4174    2856    1883    2667
CTETRA     18124       1    2192    5891    5816    5815
CTETRA     18125       1    3306    5595    5671    5596
CTETRA     18126       1    5892    2192    5891    5816
CTETRA     18127       1    3075    5750    5826    5751
CTETRA     18128       1    2671    1568    2182    2857
CTETRA     18129       1    2857    4187    2182    4138
CTETRA     18130       1     249     593     419    1894
CTETRA     18131       1    3721    2739    5921    3798
CTETRA     18132       1    2200    5774    5849    5850
CTETRA     18133       1    6241    6166    6242    4136
CTETRA     18134       1    2058    5774    5699    5698
CTETRA     18135       1    4136    2694    2696    3169
CTETRA     18136       1    3069    4555    3335    4556
CTETRA     18137       1    2695    3167    4136    2696
CTETRA     18138       1    4136    3441    3443    3442
CTETRA     18139       1    3003    5269    3373    5227
CTETRA     18140       1    4136    2694    3441    3453
CTETRA     18141       1    1752    3847    1715    2658
CTETRA     18142       1    3089    4457    4455    4289
CTETRA     18143       1     740     856    2695    4136
CTETRA     18144       1    4136     856    2694    3453
CTETRA     18145       1    2487    2660    1700    2662
CTETRA     18146       1    3623    3907    5891    3794
CTETRA     18147       1     644    4558    3069    4567
CTETRA     18148       1    1289    2598    1296    3558
CTETRA     18149       1    4197    6310    6234    6309
CTETRA     18150       1     644    4567    3069    4568
CTETRA     18151       1    4156    5872    5796    5871
CTETRA     18152       1    3069    3386    4565    4556
CTETRA     18153       1    1290    1296    3557    3558
CTETRA     18154       1    4184    5720    5721    5645
CTETRA     18155       1    2052    4543    4542    4471
CTETRA     18156       1     829    1288    2994    1984
CTETRA     18157       1    3558    3064    2598    3557
CTETRA     18158       1    3895    6019    5944    5943
CTETRA     18159       1    1053    6173    6097    6172
CTETRA     18160       1     529    1943    2376    3615
CTETRA     18161       1    3311    3333    2652    3563
CTETRA     18162       1    2993    1930    2992    1931
CTETRA     18163       1    2161    2518    3564    2740
CTETRA     18164       1     190    2605    3279    3960
CTETRA     18165       1    3073    4565    5448    4568
CTETRA     18166       1    3117    6405    6330    6329
CTETRA     18167       1    3023    2869    3046    3585
CTETRA     18168       1    6335    1578     331    3064
CTETRA     18169       1    3840    4059    3000    3380
CTETRA     18170       1    3121    1735    1737    3588
CTETRA     18171       1    2868    4413    4412    4419
CTETRA     18172       1    1736    2145    2640    3205
CTETRA     18173       1    3108    3531    3722    3530
CTETRA     18174       1    3205    3960    2605    3648
CTETRA     18175       1    6573    3309    3983    6648
CTETRA     18176       1    3850    5810    5735    5734
CTETRA     18177       1    3646    3647    2910    3381
CTETRA     18178       1    3451    2651    4173    1710
CTETRA     18179       1    3723    1034    1035    1014
CTETRA     18180       1    3121    3046    1737    3585
CTETRA     18181       1    4176    5852    5853    5777
CTETRA     18182       1     658    3149     641       7
CTETRA     18183       1    5701    1172    1173    5702
CTETRA     18184       1    2713    4684    2393    4668
CTETRA     18185       1    2885    4429    2867    4457
CTETRA     18186       1    3026    1105     249    1894
CTETRA     18187       1    1065    1052    3616    1068
CTETRA     18188       1    2122    2295    2294    2694
CTETRA     18189       1    2053    1028    4543    4470
CTETRA     18190       1    2606    5869    5793    5868
CTETRA     18191       1    2820    3452    1004    3680
CTETRA     18192       1    1065    2286    3616    2439
CTETRA     18193       1    3538    5944    5869    5868
CTETRA     18194       1    2354    2286    1066    2439
CTETRA     18195       1    3697     339     341     340
CTETRA     18196       1    2354    2439    2435    2286
CTETRA     18197       1    1859    1954    1209    2675
CTETRA     18198       1    2294    2354    3550    1066
CTETRA     18199       1    2294    2356    3441    3550
CTETRA     18200       1    2176    6561    6637    6562
CTETRA     18201       1    2294    2295    1066    2287
CTETRA     18202       1     331    6485    6410    6409
CTETRA     18203       1    2750    3982     887     895
CTETRA     18204       1    4048    3981    2893    2926
CTETRA     18205       1     158     160     240     159
CTETRA     18206       1    2748    3981    4048    3976
CTETRA     18207       1    2840    6113    6114    6038
CTETRA     18208       1    4189    5959    5960    5884
CTETRA     18209       1    3304    4600    4603    4601
CTETRA     18210       1    4005    3201    3164    6642
CTETRA     18211       1    2870    5034    5041    5035
CTETRA     18212       1    3982    2893    3981    3683
CTETRA     18213       1    4048    3936    2927    2812
CTETRA     18214       1    3185    5028    5027    5032
CTETRA     18215       1    2597    1467    2716    3701
CTETRA     18216       1    1015    1356    1014    1034
CTETRA     18217       1    2597    1289    1984    3701
CTETRA     18218       1    5882    5883    4112    5807
CTETRA     18219       1    6184    6185    2716    3701
CTETRA     18220       1    2620    5807    5732    5731
CTETRA     18221       1    1565    3515    2749    3212
CTETRA     18222       1     996     521      36      37
CTETRA     18223       1    2271    2933    3378    4041
CTETRA     18224       1    2922    5784    5708    5783
CTETRA     18225       1    4185    4416    2557    4414
CTETRA     18226       1     831     792    4291    2185
CTETRA     18227       1    1850     178     314     176
CTETRA     18228       1    1997    4893    5243    5228
CTETRA     18229       1     226     227     222     205
CTETRA     18230       1    3705    3289    2554    2156
CTETRA     18231       1    2417    1637    3669    2419
CTETRA     18232       1     134    6791    2050     135
CTETRA     18233       1    1629     247    3669    1637
CTETRA     18234       1    1244    1543    2132    1539
CTETRA     18235       1    2566    5860    5861    5785
CTETRA     18236       1    2045    5785    5786    5710
CTETRA     18237       1    3499    4421    3593    4420
CTETRA     18238       1    2139    2566    5935    5936
CTETRA     18239       1     593     521    1894     249
CTETRA     18240       1    1635    1629    1637     247
CTETRA     18241       1     248    1108     213     617
CTETRA     18242       1    1988    1166    1954    1985
CTETRA     18243       1    3593    2557    4413    4414
CTETRA     18244       1    2336    2365    2372    2351
CTETRA     18245       1    1306     154      37    1307
CTETRA     18246       1    4005    3164    6641    6642
CTETRA     18247       1    3149    3147    4026     134
CTETRA     18248       1    5933    5858    5934    3220
CTETRA     18249       1    4059    5023     664    5021
CTETRA     18250       1    3003    5227    5226    5269
CTETRA     18251       1     131    3485    4198    4186
CTETRA     18252       1    3233    5131    2248    2909
CTETRA     18253       1    4164    5791    5867    5792
CTETRA     18254       1    3391    1478    5227    5213
CTETRA     18255       1    1250    1251     705     704
CTETRA     18256       1     249     247    3669     213
CTETRA     18257       1    3897    5963    5964    5888
CTETRA     18258       1    6042    5967    6043    2246
CTETRA     18259       1    2538    1503    3763    1506
CTETRA     18260       1    1503    3763    2679    2538
CTETRA     18261       1    4420    4413    3593    2551
CTETRA     18262       1    2184    4358    5402    5403
CTETRA     18263       1    3812    3307     609    2849
CTETRA     18264       1    3418    4896    4897    5124
CTETRA     18265       1    3763    2679    2707    3520
CTETRA     18266       1    3708    3812    2462    3762
CTETRA     18267       1    1505    1504    1908     792
CTETRA     18268       1    3166    6240    6165    6164
CTETRA     18269       1    6791     135     134    6792
CTETRA     18270       1    3670    5856    5780    5855
CTETRA     18271       1    1506    3307     609    3762
CTETRA     18272       1    2683    6951     794    6950
CTETRA     18273       1    3762    4084    2538    1506
CTETRA     18274       1    3763    2679    2595    2707
CTETRA     18275       1    2553    5993    5918    5917
CTETRA     18276       1    1788    6216    6141    6924
CTETRA     18277       1    2462    3762    2594    3708
CTETRA     18278       1     928    2991    3044    4241
CTETRA     18279       1    3708    2462    2796    2594
CTETRA     18280       1    2559    3763    3520    2679
CTETRA     18281       1    3373    5269    5270    5263
CTETRA     18282       1    3867    5865    5866    5790
CTETRA     18283       1    2991    4240    6811    4241
CTETRA     18284       1    3863    5862    5787    5786
CTETRA     18285       1    4419    4413    2551    2868
CTETRA     18286       1    4070    2346    2797    2344
CTETRA     18287       1    5866    5865    3867    5941
CTETRA     18288       1    3763    2707    2595    2594
CTETRA     18289       1    2321    2322    5214    5158
CTETRA     18290       1    2324    3810    2325    3761
CTETRA     18291       1    3191    6086    6087    6011
CTETRA     18292       1    2310    3751    2403    3752
CTETRA     18293       1    2588    4021    6219    6144
CTETRA     18294       1    2917    3656    3868    2762
CTETRA     18295       1    1605    6919    6516    6920
CTETRA     18296       1    3372    5270    5271    5264
CTETRA     18297       1    4052    6199    6123    6198
CTETRA     18298       1    2285    6094    6019    6018
CTETRA     18299       1    1921    2705    2324    2309
CTETRA     18300       1    1601    3474    2901    3258
CTETRA     18301       1    1614    2759    1921    2760
CTETRA     18302       1    4149    5882    5957    5958
CTETRA     18303       1     251    1617    2779    1780
CTETRA     18304       1    4233    2991    4238    2346
CTETRA     18305       1    2505    4590    2406    4315
CTETRA     18306       1    2991    4234    2346    4233
CTETRA     18307       1    2599    6145    2293    2587
CTETRA     18308       1    2759    2309    1614    1921
CTETRA     18309       1    2917    2774    4009    2916
CTETRA     18310       1    2918    3656    3868    2917
CTETRA     18311       1    2371    2448    3739    2532
CTETRA     18312       1    4091    5788    5713    5712
CTETRA     18313       1    5937    2139    5861    2604
CTETRA     18314       1    4091    5788    5789    5713
CTETRA     18315       1    7040     131    3165    7070
CTETRA     18316       1    2761    2917    2762    3656
CTETRA     18317       1    2738    4911    4912    4913
CTETRA     18318       1    2761    1951    3656    1950
CTETRA     18319       1     709    2915    2916    2917
CTETRA     18320       1    2619    6370    6295    6294
CTETRA     18321       1    1009    5870    5794    5869
CTETRA     18322       1    4156    5870    5871    5795
CTETRA     18323       1    2991    2280    4234    4236
CTETRA     18324       1    4165    5875    5800    5799
CTETRA     18325       1    2917    2916    4009    2918
CTETRA     18326       1     172    5462     163    4737
CTETRA     18327       1    1513     709    2917    1951
CTETRA     18328       1    2509    2371    2552    2532
CTETRA     18329       1    1313    1894    2639    2908
CTETRA     18330       1    3410    3411    2908    3955
CTETRA     18331       1    2925    6530    6455    6454
CTETRA     18332       1    1313    1894    2641    2639
CTETRA     18333       1    1108    2641     247    1635
CTETRA     18334       1    1251    2798    2715     707
CTETRA     18335       1    3901    2797    3612    1626
CTETRA     18336       1    1251    1252    3901    3702
CTETRA     18337       1    4186    2704    3165    2686
CTETRA     18338       1    2151    6002    5926    6001
CTETRA     18339       1    1252    1387    4199    3702
CTETRA     18340       1    3702    1251    1252    1387
CTETRA     18341       1    4165    5950    5874    5949
CTETRA     18342       1    1816    2969    2965    2978
CTETRA     18343       1    2689    2666    2688    4192
CTETRA     18344       1    2389    6379    6380    6304
CTETRA     18345       1    2325    2316    2768    3456
CTETRA     18346       1    1887    5873    5797    5872
CTETRA     18347       1    2978    2968    3057    2007
CTETRA     18348       1    3213    2957    5121    5128
CTETRA     18349       1    2978    3057    2968    3138
CTETRA     18350       1    2969    2965    2978    2968
CTETRA     18351       1    4164    5867    5791    5866
CTETRA     18352       1    5785    5860    5784    2173
CTETRA     18353       1    4012    6304    6305    6229
CTETRA     18354       1    2903    1828    2425    5061
CTETRA     18355       1    2978    2962    2979    2964
CTETRA     18356       1    2048    2517    2036    4417
CTETRA     18357       1    2978    2962    2963    2965
CTETRA     18358       1    2313    5140    5139    4912
CTETRA     18359       1    4012    6304    6229    6228
CTETRA     18360       1    3831    3832    4011    1549
CTETRA     18361       1    3831    1549    4011    4012
CTETRA     18362       1    1262    1261    1235    1260
CTETRA     18363       1    1927    2371    2509    2532
CTETRA     18364       1    2893    3981    6067    6066
CTETRA     18365       1    4119    5843    5844    5768
CTETRA     18366       1    6055    6056    3986    5980
CTETRA     18367       1    2225    3959      94    4755
CTETRA     18368       1    4119    5844    5769    5768
CTETRA     18369       1    4055    5994    5995    5919
CTETRA     18370       1    3294    2873    3832    2875
CTETRA     18371       1    3061    3677    4014    4012
CTETRA     18372       1    3831    4011    3676    3677
CTETRA     18373       1    3606    5809    5885    5810
CTETRA     18374       1    3605    5960    5961    5885
CTETRA     18375       1    2819    6035    6036    5960
CTETRA     18376       1    2349    3196    3082    3491
CTETRA     18377       1    2101    2225    3959      94
CTETRA     18378       1    4063    2904    3298     473
CTETRA     18379       1    3828    2052    4541    4311
CTETRA     18380       1    4060    2113    2035    4541
CTETRA     18381       1    2174    3660    3704    3661
CTETRA     18382       1    2175    3828    4060    3660
CTETRA     18383       1    5934    5859    5935    3220
CTETRA     18384       1    2528    2507    2527    2529
CTETRA     18385       1    4198    2704    3956    2897
CTETRA     18386       1    2866    2868    4419    2551
CTETRA     18387       1    2159    6566    6491    6490
CTETRA     18388       1    1445    6563    6639    6564
CTETRA     18389       1    4060    2517    3660    2829
CTETRA     18390       1    4060    3298    2904    2113
CTETRA     18391       1    3959      94    4754     622
CTETRA     18392       1    2159    6490    6491    6415
CTETRA     18393       1    4018    6162    6087    6086
CTETRA     18394       1    2174    4060    3704    3660
CTETRA     18395       1    3119    1020    3122    3565
CTETRA     18396       1    2307     477    4923    3950
CTETRA     18397       1     638    2261    2260    6944
CTETRA     18398       1    3221    5877    5801    5876
CTETRA     18399       1    3277    5875    5876    5800
CTETRA     18400       1    3118    3640    3567    3119
CTETRA     18401       1    3940    5954    6030    5955
CTETRA     18402       1    3122    1969    1455    1023
CTETRA     18403       1    3122    3116    1455    1969
CTETRA     18404       1     242    2269    4930    4943
CTETRA     18405       1    2468     486    2469    4913
CTETRA     18406       1    3959      94    4755    4754
CTETRA     18407       1    3122    1021    1455    3117
CTETRA     18408       1    2953    4961    4960    4970
CTETRA     18409       1    4192    5876    5875    5951
CTETRA     18410       1    3959    4737     163    4736
CTETRA     18411       1    3119    3565    3122    3145
CTETRA     18412       1    2113    4541    4538    4539
CTETRA     18413       1    3515    2795    2752    2586
CTETRA     18414       1    4823    2541    6938    2687
CTETRA     18415       1    2586    2005    3516    2587
CTETRA     18416       1    2375    6107    6032    6031
CTETRA     18417       1    4058    5952    5953    5877
CTETRA     18418       1    2586    2587    4021    2588
CTETRA     18419       1    4198    3956    4186    3696
CTETRA     18420       1    2329    4118    3595    3597
CTETRA     18421       1    4058    6028    5953    5952
CTETRA     18422       1    3595    3269    4118    3783
CTETRA     18423       1    3595    4118    3269    3270
CTETRA     18424       1    3595    3692    4118    3270
CTETRA     18425       1     471    4602    4589    4601
CTETRA     18426       1    3595    4118    3692    3597
CTETRA     18427       1     342    1744     128    4789
CTETRA     18428       1    1467    6184    6109    6108
CTETRA     18429       1    4189    6035    5960    5959
CTETRA     18430       1     230    4186    3696    4198
CTETRA     18431       1    3595    3271    3856    3596
CTETRA     18432       1    2368    1403     846    1646
CTETRA     18433       1    1403    4018    3191    2138
CTETRA     18434       1    2173    5860    5784    5859
CTETRA     18435       1    4062     700    1033    6170
CTETRA     18436       1     969    6551    6476    6475
CTETRA     18437       1    3798    5846    5771    5770
CTETRA     18438       1    1402    1404    1403    3182
CTETRA     18439       1    4198    4186    2704    3165
CTETRA     18440       1    1520    1403    3178    3183
CTETRA     18441       1    1991    5156    5157    5191
CTETRA     18442       1    4034    5922    5923    5847
CTETRA     18443       1    3703     817     816     819
CTETRA     18444       1    1744    2536    4792    4793
CTETRA     18445       1    4055    5919    5920    5844
CTETRA     18446       1    2867    4457    4428    4455
CTETRA     18447       1    2671    2182    1573    2853
CTETRA     18448       1    2856    4174    4143    2667
CTETRA     18449       1    2905    5962    6038    5963
CTETRA     18450       1    2905    6038    5962    6037
CTETRA     18451       1    1836    2258    2436    2672
CTETRA     18452       1     131    2120     129    2121
CTETRA     18453       1    2671    2258    2672    2851
CTETRA     18454       1    2841    6115    6040    6039
CTETRA     18455       1    3656    2920    2918    3364
CTETRA     18456       1    2536    7035    2119    7034
CTETRA     18457       1    3794    5966    6042    5967
CTETRA     18458       1    1282    6266    6341    6342
CTETRA     18459       1    2369    4988    4991    4992
CTETRA     18460       1    2246    6117    6118    6042
CTETRA     18461       1    4794    7035    4795    2312
CTETRA     18462       1    4198    2470    3485    7040
CTETRA     18463       1    2536    2312    4794    1744
CTETRA     18464       1    2553    5841    5917    5842
CTETRA     18465       1    4198    3485    2470    3486
CTETRA     18466       1    3656    2764    3658    3657
CTETRA     18467       1    3656    1958    3364    3658
CTETRA     18468       1     128    2536    4792    1744
CTETRA     18469       1    4805    4793    4806    1744
CTETRA     18470       1    2907    1950    2764    1958
CTETRA     18471       1    4198    3486    2470    2897
CTETRA     18472       1    2293    6070    6071    5995
CTETRA     18473       1    1745     342    1744    2312
CTETRA     18474       1    2118    4186    4145    2908
CTETRA     18475       1    4132    6069    6070    5994
CTETRA     18476       1    1367    2256    2255    3839
CTETRA     18477       1    2932    2933    4041    4033
CTETRA     18478       1    4189    6034    6035    5959
CTETRA     18479       1    3962    3309    3634    4172
CTETRA     18480       1    3054    3053    2719    2370
CTETRA     18481       1    2932    4041    3652    4163
CTETRA     18482       1    2409    3047    4187    3043
CTETRA     18483       1     342    1744    2312     128
CTETRA     18484       1     128     342     130    2312
CTETRA     18485       1    2312    7035    4795    7036
CTETRA     18486       1     283     342    4799    4798
CTETRA     18487       1    3506    3328    3511    3513
CTETRA     18488       1    1299    2276     750    1798
CTETRA     18489       1    2584    4033    2589    4032
CTETRA     18490       1    3863    5863    5788    5787
CTETRA     18491       1    3820    5863    5864    5788
CTETRA     18492       1    3662     819     816    4200
CTETRA     18493       1    1823    2485    3218    3340
CTETRA     18494       1     342    2312    4797     283
CTETRA     18495       1    2606    5868    5793    5792
CTETRA     18496       1     193     357    3131     194
CTETRA     18497       1    1667    2525    1820    2493
CTETRA     18498       1    4192    5952    5876    5951
CTETRA     18499       1    2494    1821    3093    3060
CTETRA     18500       1    3386    4120    4638    4609
CTETRA     18501       1    1261    3295    3104    3153
CTETRA     18502       1    1500    3117    3920    4045
CTETRA     18503       1    4198     230    4186    3485
CTETRA     18504       1    2467    2469    2468    2816
CTETRA     18505       1    3386    4557    3731    5446
CTETRA     18506       1    2813    4538    4592    4591
CTETRA     18507       1    3386    3731    4557    4638
CTETRA     18508       1    2689    6026    5950    6025
CTETRA     18509       1     950    6873    4901    6872
CTETRA     18510       1    3295    6148    3153    6147
CTETRA     18511       1    1261    2892    1235    3296
CTETRA     18512       1    2241    5008    5017    5014
CTETRA     18513       1    2738    5037    4911    4913
CTETRA     18514       1    4099    6100    6025    6024
CTETRA     18515       1    3645    6470    6395    6394
CTETRA     18516       1    1466    1465    1077    1500
CTETRA     18517       1    1433    6179    6104    6103
CTETRA     18518       1    1007    1052    3617    3616
CTETRA     18519       1    6322    6321    1039    6397
CTETRA     18520       1    1036    3101    2872    3148
CTETRA     18521       1    1481    1061    3172    3744
CTETRA     18522       1    3997    1432    3744    1481
CTETRA     18523       1    2152    5924    5925    5849
CTETRA     18524       1    2199    6075    6000    5999
CTETRA     18525       1    1111    1567    2560    2409
CTETRA     18526       1    2867     586     818    2551
CTETRA     18527       1    1481    1061    3744    4099
CTETRA     18528       1    2879    5998    5999    5923
CTETRA     18529       1    4003    4109    2974    2977
CTETRA     18530       1    3849    1524    3306    3302
CTETRA     18531       1    3386    3335    4120    4609
CTETRA     18532       1    1480    3997    1431    1858
CTETRA     18533       1     415    3429    2921    3625
CTETRA     18534       1    2152    5925    5926    5850
CTETRA     18535       1    3069    3386    4556    3335
CTETRA     18536       1    3429    3625    3416    2921
CTETRA     18537       1    3324    3325    2169    3241
CTETRA     18538       1    3429    5629    2169    3843
CTETRA     18539       1    2148    5447    4565    4557
CTETRA     18540       1    2291    2947    3556    6782
CTETRA     18541       1    3059    6192    2455    6267
CTETRA     18542       1    5871    2815    5947    5946
CTETRA     18543       1    3429    3242    5629    3416
CTETRA     18544       1    2138     846    4018    2733
CTETRA     18545       1    3843    2934    4064    2169
CTETRA     18546       1    1574    3361    2976    3300
CTETRA     18547       1    4023    6430    4024    6355
CTETRA     18548       1    3076    6398     216    2899
CTETRA     18549       1    4169    6021    5946    5945
CTETRA     18550       1    3862    5788    3820    5789
CTETRA     18551       1    3862    3867    3820    2783
CTETRA     18552       1     216    6396    6472    6397
CTETRA     18553       1    2785    3862    2850    3300
CTETRA     18554       1    1079    4062     700    1033
CTETRA     18555       1    2947    3150    4965    2951
CTETRA     18556       1    3862    3896    4040    3817
CTETRA     18557       1     216    6473    6398    6397
CTETRA     18558       1    3862    2785    3863    4040
CTETRA     18559       1    3862    3820    5788    3863
CTETRA     18560       1    2645    1227    1229    2266
CTETRA     18561       1    2949    2947    3150    1205
CTETRA     18562       1    2100      94    3389     495
CTETRA     18563       1    3093    3104    2655    2199
CTETRA     18564       1    1743    4805    4818    4806
CTETRA     18565       1    2166    4451    4430    4440
CTETRA     18566       1    2398    5465    4731    4728
CTETRA     18567       1    2473    5927    5928    5852
CTETRA     18568       1    2100    2101    2648    2647
CTETRA     18569       1    2099    3389    2100      94
CTETRA     18570       1    2398     306     910    4719
CTETRA     18571       1    2885    4429    4440    4430
CTETRA     18572       1    2100    2648    3400    3258
CTETRA     18573       1     858    3914    3645    2674
CTETRA     18574       1    4169    5945    5946    5870
CTETRA     18575       1    2296     858     856    1977
CTETRA     18576       1     306    3444    4718    4721
CTETRA     18577       1    3538    5943    5944    5868
CTETRA     18578       1    1180    4892    5247    5243
CTETRA     18579       1     306    4718     305    4719
CTETRA     18580       1    2655    2279    6225    6150
CTETRA     18581       1    1976    1973    3426    2272
CTETRA     18582       1    2250    6378    6302    6377
CTETRA     18583       1    1569    2973    3361    2183
CTETRA     18584       1    1573    3896    3300    2784
CTETRA     18585       1    3426    6469    3638     935
CTETRA     18586       1     595    5249    5248    5251
CTETRA     18587       1    2296    2695    1977     856
CTETRA     18588       1    3969    2674    3645    2088
CTETRA     18589       1    2296     769    3914    2674
CTETRA     18590       1     989    6488    6489    6413
CTETRA     18591       1     306     910     303    2398
CTETRA     18592       1    5858    3845    3220    5933
CTETRA     18593       1    3378    1462    4177    1463
CTETRA     18594       1     641    6564    6565    6489
CTETRA     18595       1     564    2147    3279     190
CTETRA     18596       1     641    6489    6565    6490
CTETRA     18597       1    3489    4897    4896    5209
CTETRA     18598       1    5859    3845    3220    5858
CTETRA     18599       1     946     869     903     942
CTETRA     18600       1    2607    1462    2043     962
CTETRA     18601       1    1670    5931    5932    5856
CTETRA     18602       1     869     870    2164    2060
CTETRA     18603       1    2168    4422    4429    4423
CTETRA     18604       1    2123    6005    5929    6004
CTETRA     18605       1    1494    5234    4895    5235
CTETRA     18606       1    2551    4422    4419    4428
CTETRA     18607       1     869     941     903     942
CTETRA     18608       1    3130    5070     194    5071
CTETRA     18609       1    1592    1759    1611    3996
CTETRA     18610       1    1592    1596    6932    5541
CTETRA     18611       1    3028    3141     352     356
CTETRA     18612       1    3897    6038    6039    5963
CTETRA     18613       1    3309    4172    2116    3983
CTETRA     18614       1    1592    1596    5541    1585
CTETRA     18615       1    5542    1592    1585    4161
CTETRA     18616       1    3889    5879    5803    5878
CTETRA     18617       1    1592    4161    5542    5617
CTETRA     18618       1    3940    6029    6030    5954
CTETRA     18619       1    4201    5954    5955    5879
CTETRA     18620       1    2683     642     638    2260
CTETRA     18621       1    3361    2973    4003    3363
CTETRA     18622       1    1845    1840    1875    3319
CTETRA     18623       1     945    4996    4995    5029
CTETRA     18624       1    3028    6772    5081    5084
CTETRA     18625       1    3130    3131    5071     194
CTETRA     18626       1    1836    2857    1883    1442
CTETRA     18627       1    2364    6031    5956    5955
CTETRA     18628       1    2951    4952    4964    4953
CTETRA     18629       1    4003    2045    4040    3359
CTETRA     18630       1    4003    2976    4107    2977
CTETRA     18631       1    1929    3130    1049     194
CTETRA     18632       1    1555    1844     806    1567
CTETRA     18633       1    2566    5935    5936    5860
CTETRA     18634       1    2566    5861    5786    5785
CTETRA     18635       1    3863    5861    5862    5786
CTETRA     18636       1    4191    3076    6398     216
CTETRA     18637       1    4003    2975    4109    3629
CTETRA     18638       1    3743    4999    4998    5010
CTETRA     18639       1    4003    4107    4040    2045
CTETRA     18640       1    2760    1921    2601    2717
CTETRA     18641       1    3002    6481    6482    6406
CTETRA     18642       1    3821    6015    5940    5939
CTETRA     18643       1    2616    5220    5252    5256
CTETRA     18644       1     971    6604    3393    6679
CTETRA     18645       1    2139    5936    5937    5861
CTETRA     18646       1     473    2406    2554    2505
CTETRA     18647       1    2616    2617    1727    5252
CTETRA     18648       1    1727     597    5257    5251
CTETRA     18649       1    2337    6483    6408    6407
CTETRA     18650       1    5251    3931    3049    1727
CTETRA     18651       1    2717    2768    2770    3761
CTETRA     18652       1    2337    6408    6483    6484
CTETRA     18653       1    3761    2759    4085    2760
CTETRA     18654       1    4157    2759    4085    2324
CTETRA     18655       1     664    1607    5024    5023
CTETRA     18656       1    3538    5942    5943    5867
CTETRA     18657       1    5941    5865    3867    5940
CTETRA     18658       1    2768    2325    3456    3336
CTETRA     18659       1    5253    5252    5251    3049
CTETRA     18660       1    3889    5878    5954    5879
CTETRA     18661       1    4087    6105    6106    6030
CTETRA     18662       1     664    3380    1607    5023
CTETRA     18663       1    3537    6018    5943    5942
CTETRA     18664       1    1096    1097    1092    1091
CTETRA     18665       1    5545    5544    3202    5620
CTETRA     18666       1     971    1727    2617    3049
CTETRA     18667       1     880    1120     878    3465
CTETRA     18668       1    1048     896    3248     897
CTETRA     18669       1    5695    3971    4113    2431
CTETRA     18670       1    3746    6054    5978    6053
CTETRA     18671       1    3987    3942    5979    3946
CTETRA     18672       1    5979    6054    5978    3746
CTETRA     18673       1    6033    4090    4149    6034
CTETRA     18674       1    2022    3731    4648    4644
CTETRA     18675       1    2022    1116    4653    4647
CTETRA     18676       1    3352    1116    2022    2108
CTETRA     18677       1    2375    6031    6032    5956
CTETRA     18678       1    1902    3987    3746    2547
CTETRA     18679       1    4090    6108    6109    6033
CTETRA     18680       1    3711    3380     945    3185
CTETRA     18681       1    3944    3767    3987    3764
CTETRA     18682       1    1467    6183    6184    6108
CTETRA     18683       1    3417    1788    6216    6141
CTETRA     18684       1    2819    6035    6111    6036
CTETRA     18685       1     336    6110    6186    6111
CTETRA     18686       1    2973    2183    3209    3363
CTETRA     18687       1    2025    3368    4659    5440
CTETRA     18688       1    2547    3987    3746    3768
CTETRA     18689       1    1465    4045    1484    1454
CTETRA     18690       1    2908    3955    4145    2382
CTETRA     18691       1    4112    5957    5881    5956
CTETRA     18692       1     701    3895    6019    6020
CTETRA     18693       1    1902    3987    3944    3946
CTETRA     18694       1    2199    3004    5999    2152
CTETRA     18695       1    2081    3259    3007    3707
CTETRA     18696       1    3844    5858    5783    5782
CTETRA     18697       1    1259    2494    1261    3103
CTETRA     18698       1    5842     325    2553    5841
CTETRA     18699       1    3255    2707    3532    3707
CTETRA     18700       1    2707    3532    3707    3259
CTETRA     18701       1    6456    6380    1550    2925
CTETRA     18702       1    2404    2707    3259    2708
CTETRA     18703       1     831    4418    2185    4291
CTETRA     18704       1     701    6095    6019     699
CTETRA     18705       1    2022    5444    4649    4661
CTETRA     18706       1    3845    5933    5858    5857
CTETRA     18707       1     933    6475    6476    6400
CTETRA     18708       1    2380    5046      49    5058
CTETRA     18709       1    2302    3639    6630    2289
CTETRA     18710       1     800    6082    6007    6006
CTETRA     18711       1    1670    5931    6006    6007
CTETRA     18712       1     373    6766    5048    6767
CTETRA     18713       1    3259    2707    3532    2708
CTETRA     18714       1    3514    5228    5229    5235
CTETRA     18715       1     959     944    1390    1440
CTETRA     18716       1    2533    3624    2530    2848
CTETRA     18717       1    3377    6629    6553    6628
CTETRA     18718       1    2533    2833    2514    2848
CTETRA     18719       1    3745    6324    6325    6249
CTETRA     18720       1    2533    3624    2529    2530
CTETRA     18721       1     642    3674     638     640
CTETRA     18722       1    4034    5849    5774    5773
CTETRA     18723       1    2397    6766    5059    5048
CTETRA     18724       1    2507    2623    2561    2567
CTETRA     18725       1    4145    3955    4186    2837
CTETRA     18726       1    2506    2513    2509    2508
CTETRA     18727       1    3662    3703     819    2557
CTETRA     18728       1    4189    5960    5885    5884
CTETRA     18729       1    2559    1343    2731    2558
CTETRA     18730       1    2706    2681    2680    2701
CTETRA     18731       1    2679    2682    2681    2702
CTETRA     18732       1    3820    5939    5864    5863
CTETRA     18733       1    2604    5938    5862    5937
CTETRA     18734       1    2706    2679    2680    2681
CTETRA     18735       1      49    5046     378    5096
CTETRA     18736       1      49      55    5097    5096
CTETRA     18737       1    2469    2612    2467    5037
CTETRA     18738       1    2703    2706    2679    3520
CTETRA     18739       1    6320     857    6244    6245
CTETRA     18740       1     730    1739    2546    1738
CTETRA     18741       1    1816    1533    2979    2962
CTETRA     18742       1    1432    6178    1497    1433
CTETRA     18743       1    2603    3554    3529    3553
CTETRA     18744       1    2603    4025    3618    3529
CTETRA     18745       1    1661    6449    6374    6373
CTETRA     18746       1    1615    2603    2602    2760
CTETRA     18747       1    6151    2569    6227    2655
CTETRA     18748       1    2549    1902    1749    1903
CTETRA     18749       1    2767    2955    2766    2769
CTETRA     18750       1    1432    6101    3744    6176
CTETRA     18751       1    3475    4202    3618    2602
CTETRA     18752       1    4203    5942    5866    5941
CTETRA     18753       1    3959    4736     910     622
CTETRA     18754       1    1904    2830    2602    3943
CTETRA     18755       1    2602    1903    1904    3747
CTETRA     18756       1    1279    2400    1292    2459
CTETRA     18757       1     945    4995    1440    5027
CTETRA     18758       1     910     622    4736    4735
CTETRA     18759       1    1475    6604    6529    6528
CTETRA     18760       1    3537    6017    5942    5941
CTETRA     18761       1    1493    2315    5209    5237
CTETRA     18762       1    3382    5224    2632    5278
CTETRA     18763       1    1430    1433    1432    1497
CTETRA     18764       1     910     163    4720    4736
CTETRA     18765       1     609    3762    3812    3763
CTETRA     18766       1    3895    5945    5869    5944
CTETRA     18767       1     910    4735     305     622
CTETRA     18768       1    1779    2462    2132    2394
CTETRA     18769       1    3674    3307    2462    2157
CTETRA     18770       1     665    4990    4921    5026
CTETRA     18771       1    3674    3762    2462    3307
CTETRA     18772       1     301     607     640    3674
CTETRA     18773       1     301     608     640     607
CTETRA     18774       1    1539    1579    1779    1581
CTETRA     18775       1    2132    2157    2394    2462
CTETRA     18776       1    3541    4052    3256    3627
CTETRA     18777       1    5843    4055    2553    4054
CTETRA     18778       1    2927    6927    5991    5916
CTETRA     18779       1    3034    1800    5415    3033
CTETRA     18780       1    2553    5918    5842    5917
CTETRA     18781       1    1266    1992    1993    2711
CTETRA     18782       1    2322    5157    5213    5158
CTETRA     18783       1    1268    2706    2703    3520
CTETRA     18784       1    3773    3751    2399    3474
CTETRA     18785       1    3953    6371    6296    6295
CTETRA     18786       1    3196    3197    3667    3022
CTETRA     18787       1    2780    2779    1333    2831
CTETRA     18788       1    3992    2653    3397    1992
CTETRA     18789       1    1992    1266    2267    2711
CTETRA     18790       1    3389    1229     495    3397
CTETRA     18791       1    4112    5957    5882    5881
CTETRA     18792       1    1375    1430    1455    1465
CTETRA     18793       1    1244    1539    1581    1580
CTETRA     18794       1    1748    3482     690     692
CTETRA     18795       1    3004    6074    5999    5998
CTETRA     18796       1    2152    6000    6001    5925
CTETRA     18797       1    2127    2484    4379    4378
CTETRA     18798       1    1393    1970    1420    1905
CTETRA     18799       1    1393    1396    1395    1909
CTETRA     18800       1    5938    5939    2604    5863
CTETRA     18801       1    1431    1433    1704    6103
CTETRA     18802       1     690    1777     684     692
CTETRA     18803       1    2604    6014    5939    5938
CTETRA     18804       1     341    6413     340    6337
CTETRA     18805       1    2139    6012    5937    5936
CTETRA     18806       1     684     691     412    3281
CTETRA     18807       1    6398    2899    6474    6473
CTETRA     18808       1     909     195    1049    5086
CTETRA     18809       1    1432    3172    6176    3744
CTETRA     18810       1    5012    2290    5011    5008
CTETRA     18811       1    3281     691    1396     690
CTETRA     18812       1     690    1406    1394    3281
CTETRA     18813       1     933    2899    6400    3881
CTETRA     18814       1    1333    2343    2830    2831
CTETRA     18815       1    1002    5947    5948    5872
CTETRA     18816       1    3911    3417    3013    4021
CTETRA     18817       1    4039    3911    3417    3013
CTETRA     18818       1    2749    3911    3912    2751
CTETRA     18819       1    3912    3417    3981    2751
CTETRA     18820       1    2749    3912    2750    2748
CTETRA     18821       1    1632    3911    3417    4039
CTETRA     18822       1     495    4751    4753    4747
CTETRA     18823       1     508     299     401    4769
CTETRA     18824       1    1344    5611    5610    5686
CTETRA     18825       1     891     892    4743    4742
CTETRA     18826       1    2534    2535    3903    2384
CTETRA     18827       1    4146    5005    5000    5006
CTETRA     18828       1    1628    1081    1381    1636
CTETRA     18829       1    1811    1850    2134     175
CTETRA     18830       1    2665    2989    2990    3771
CTETRA     18831       1    1427    2665    2990    3068
CTETRA     18832       1    3116    1455    1969    1453
CTETRA     18833       1    3116    1497    6253    1454
CTETRA     18834       1    6253    1454    6254    3116
CTETRA     18835       1    6254    3116    6329    6253
CTETRA     18836       1    3116    1455    1454    3117
CTETRA     18837       1    1415    1061    1481    1054
CTETRA     18838       1     195     196    5106     393
CTETRA     18839       1     373     127    1140    1139
CTETRA     18840       1    3816    2851    2040    3818
CTETRA     18841       1    2030    5822    5821    5897
CTETRA     18842       1    1139     127    1140    3501
CTETRA     18843       1    1976    1161    2272    3638
CTETRA     18844       1    2051    3275    4475    4474
CTETRA     18845       1    3816    3316    5564    3034
CTETRA     18846       1    3816    3316    3034    3315
CTETRA     18847       1    2819    6110    6034    6109
CTETRA     18848       1    3011    3005    1687    2619
CTETRA     18849       1    2003    2051    4479    4487
CTETRA     18850       1    2376    6187    6188    6112
CTETRA     18851       1    2854    3816    2041    3315
CTETRA     18852       1    3701    6185    6109    6184
CTETRA     18853       1    3816    2851    2852    2041
CTETRA     18854       1    2626    2746    2734    2727
CTETRA     18855       1    3562    2626    2746    2745
CTETRA     18856       1     528    6111    6187    6112
CTETRA     18857       1    1431    3997    1432    4100
CTETRA     18858       1    3310    3563    3311    3879
CTETRA     18859       1    2167    3310    3563    3311
CTETRA     18860       1    2167    2627    2626    3310
CTETRA     18861       1    2003    5421    2051    4488
CTETRA     18862       1    2566    5936    5861    5860
CTETRA     18863       1    2143    6117    6042    6041
CTETRA     18864       1    3016    2051    4474    3909
CTETRA     18865       1    3016    5422    4485    4488
CTETRA     18866       1     126     909    5107     195
CTETRA     18867       1    3310    2675    3885    3311
CTETRA     18868       1    6445    1684    3005    6370
CTETRA     18869       1    2688    6024    6025    5949
CTETRA     18870       1    1816    2978    2962    2979
CTETRA     18871       1    1525    1541    1346    1349
CTETRA     18872       1    2400    2459    5210    5154
CTETRA     18873       1    3690    6593    6517    6592
CTETRA     18874       1    4203    5866    5942    5867
CTETRA     18875       1    1605    6441    6366    6921
CTETRA     18876       1    3309    4172    2066    2880
CTETRA     18877       1    1642    1605    3594    3717
CTETRA     18878       1    2962    2964    1541    1525
CTETRA     18879       1    3744    6174    6175    6099
CTETRA     18880       1    4172    3309    3634    2880
CTETRA     18881       1    3284    5044    5043    5093
CTETRA     18882       1    2962    2965    2967    2963
CTETRA     18883       1    5864    3867    5865    5940
CTETRA     18884       1    3173    6161    6236    6237
CTETRA     18885       1    3425    1521    1519    3886
CTETRA     18886       1    1149    1150    1519    1148
CTETRA     18887       1    7040    3485    4198     131
CTETRA     18888       1    1481    1432    3744    3172
CTETRA     18889       1    2152    5999    6000    5924
CTETRA     18890       1    5922    5998    3296    2879
CTETRA     18891       1    2741    2205    4460    4442
CTETRA     18892       1     195     194    5087     196
CTETRA     18893       1    1767    6214    6289    6290
CTETRA     18894       1    3130    1049     194    5070
CTETRA     18895       1    1049     194    5070    5087
CTETRA     18896       1     938    1049     202    1929
CTETRA     18897       1    1782    2301    1783    1785
CTETRA     18898       1    1782    1783    2301    1997
CTETRA     18899       1    2301    1997    1998    1996
CTETRA     18900       1    2094    3469    4001    2097
CTETRA     18901       1    1013    1016    3137     991
CTETRA     18902       1     973    1781    1771     629
CTETRA     18903       1    3390    5610    5685    1344
CTETRA     18904       1    1782    3517    1996    2590
CTETRA     18905       1    1992    3992    3963    3871
CTETRA     18906       1    2225     611     406    4739
CTETRA     18907       1     254    2476    1993    2477
CTETRA     18908       1    2645    1609    2653    3389
CTETRA     18909       1     881    1118    1097    1761
CTETRA     18910       1    1701    1698    1130    3398
CTETRA     18911       1    2476    1993    2477    2681
CTETRA     18912       1    2683    6953     795    6952
CTETRA     18913       1    1883    2669    4174    2667
CTETRA     18914       1    3521    4174    4142    3838
CTETRA     18915       1    4174    2669    3838    4143
CTETRA     18916       1     974    3742    3807     975
CTETRA     18917       1    1568    2671    2182    1573
CTETRA     18918       1    2865    6021    6022    5946
CTETRA     18919       1     524    5459    4689    4706
CTETRA     18920       1    2865    6023    5948    5947
CTETRA     18921       1    4201    5955    5880    5879
CTETRA     18922       1    2864    6097    6098    6022
CTETRA     18923       1    3965    3305    4587    3304
CTETRA     18924       1     406    2149    4691    4740
CTETRA     18925       1    2858    4178    4179    3521
CTETRA     18926       1    3645    6394    6319    6318
CTETRA     18927       1    3745    6249    6250    6174
CTETRA     18928       1     541    6536    6535    6611
CTETRA     18929       1    2864    6097    6022    6021
CTETRA     18930       1    4104    4143    2858    3521
CTETRA     18931       1    2858    4103    3521    4179
CTETRA     18932       1     999    3807    4204    1031
CTETRA     18933       1    4178    4174    2858    2135
CTETRA     18934       1     218    3426    6546    6471
CTETRA     18935       1    4200    3662     819    3593
CTETRA     18936       1    4058    5953    5878    5877
CTETRA     18937       1    2247    1041    1298    2670
CTETRA     18938       1     406    4739     611    4740
CTETRA     18939       1    2143    6116    6192    6117
CTETRA     18940       1    3426    3638    2272     935
CTETRA     18941       1    2454    6115    6190    6191
CTETRA     18942       1    3426    3645    6469    6470
CTETRA     18943       1    3426    3645    6470    6395
CTETRA     18944       1    3844    5781    5857    5782
CTETRA     18945       1    3969     216    3426     606
CTETRA     18946       1    2022    3731    4644    5445
CTETRA     18947       1     858    6393    6318    6317
CTETRA     18948       1    2022    5445    4644    4649
CTETRA     18949       1    3220    6009    6010    5934
CTETRA     18950       1    3969    2670    4191     216
CTETRA     18951       1     218     606    3426     216
CTETRA     18952       1    2018    3789    5485    3825
CTETRA     18953       1    6166    6242    4136    3442
CTETRA     18954       1    3825    2018    5559    5484
CTETRA     18955       1    3744    6176    6101    6100
CTETRA     18956       1    3825    2018    2919    5559
CTETRA     18957       1    5943    6019    2285    3895
CTETRA     18958       1     994    2031    3399     995
CTETRA     18959       1    3604    6128    6203    6204
CTETRA     18960       1    5131    2382    7030    5130
CTETRA     18961       1    1038    6247    1040    6171
CTETRA     18962       1     701    6096    6021    6020
CTETRA     18963       1    5636    3318    5561    5637
CTETRA     18964       1    2801    6133    6208    6209
CTETRA     18965       1     666    4920    4919    5021
CTETRA     18966       1    1666    2569    4014    2556
CTETRA     18967       1    3825    2018    5484    5485
CTETRA     18968       1    3825    3318    5561    5636
CTETRA     18969       1    2539    2668    1888    4205
CTETRA     18970       1    2733    6084    6160    6085
CTETRA     18971       1    3825    3826    3370    2018
CTETRA     18972       1    3301    4092    3934    2793
CTETRA     18973       1    1860    2627    2635    2630
CTETRA     18974       1    4173    5808    5884    5809
CTETRA     18975       1    1207    1183    1451    1190
CTETRA     18976       1    3129    1276    3018    2457
CTETRA     18977       1     744    4940    2219    4926
CTETRA     18978       1    1194    3964    3129    3128
CTETRA     18979       1    3129    3246    3128    3964
CTETRA     18980       1    2601    2760    2603    1615
CTETRA     18981       1    3949    5930    5854    5929
CTETRA     18982       1    4429    2885    2168    4430
CTETRA     18983       1    3082     744    1560    3083
CTETRA     18984       1    1631    3594    3211    3717
CTETRA     18985       1    2954    3929    1514    3432
CTETRA     18986       1    2123    6006    5931    5930
CTETRA     18987       1    2617    5283    5221    5284
CTETRA     18988       1    2337    6408    6332    6407
CTETRA     18989       1    2484    4376    2503    4377
CTETRA     18990       1    2954    1514    3929    1965
CTETRA     18991       1     800    6157    6158    6082
CTETRA     18992       1    3931     595     597    5251
CTETRA     18993       1    2484    2504    4376    4371
CTETRA     18994       1    1495    5235    5233    5234
CTETRA     18995       1     464    1564     451    1650
CTETRA     18996       1     703     704    1367    1368
CTETRA     18997       1    2479    3020    3056    3098
CTETRA     18998       1    6755    6894    5260    6893
CTETRA     18999       1    1663    1662    1962    3212
CTETRA     19000       1    1325    2863    2807    2862
CTETRA     19001       1    2954    2423    3126    3432
CTETRA     19002       1    1597    1965    2499     705
CTETRA     19003       1    3935     703    3125    2499
CTETRA     19004       1    1939    2242    1938    1948
CTETRA     19005       1    2127    3922    2484    4378
CTETRA     19006       1    3682    5993    5994    5918
CTETRA     19007       1    3682    6069    5994    5993
CTETRA     19008       1    2336    2491    2350    2351
CTETRA     19009       1    2486     645    3786    2159
CTETRA     19010       1    2336    2350    2491    2490
CTETRA     19011       1    4192    5951    5875    5950
CTETRA     19012       1    2486     645    2159    3164
CTETRA     19013       1    2486    3786     659    2159
CTETRA     19014       1    3965    4595    4599    4600
CTETRA     19015       1    2177    5589    3781    5664
CTETRA     19016       1    2177    5589    3050    3781
CTETRA     19017       1    1484    6180    6105    6104
CTETRA     19018       1    3317    5413    4379    4377
CTETRA     19019       1    5939    3820    5864    5940
CTETRA     19020       1    4100    5951    6027    5952
CTETRA     19021       1    2177    1529    2191    3781
CTETRA     19022       1    4100    6102    6103    6027
CTETRA     19023       1    1291    2897    2704    1293
CTETRA     19024       1    4100    6103    6028    6027
CTETRA     19025       1    1476    6453    6378    6377
CTETRA     19026       1    3373    5263    3391    5227
CTETRA     19027       1    1488    6301    6302    6226
CTETRA     19028       1    3627    6200    6201    6125
CTETRA     19029       1    4099    6101    6025    6100
CTETRA     19030       1    1667    3060    1666    2493
CTETRA     19031       1    1364    2795    3120     889
CTETRA     19032       1    1788    6215    6290    6923
CTETRA     19033       1    2484    4371    3922    2504
CTETRA     19034       1    1517    3781    1529    1509
CTETRA     19035       1    1040    6172    6097    6096
CTETRA     19036       1    3934    5890    5815    5814
CTETRA     19037       1    2056    2196    4625    4640
CTETRA     19038       1    2025    5439    4658    3051
CTETRA     19039       1    3051     911    4639    4655
CTETRA     19040       1    4149    6032    6033    5957
CTETRA     19041       1    3950    3619    4984    4987
CTETRA     19042       1    2094    4078    2095    2097
CTETRA     19043       1    3051     911    4655    4659
CTETRA     19044       1    2094    3469    2305    4001
CTETRA     19045       1    3537    6017    6018    5942
CTETRA     19046       1    3821    6015    6016    5940
CTETRA     19047       1    2094    2252    2305    2253
CTETRA     19048       1    1613    3474    3469    2094
CTETRA     19049       1    1600    2311    1616    2310
CTETRA     19050       1    4185    4408    4416    4409
CTETRA     19051       1    2340    4078    4206    2095
CTETRA     19052       1    2279    6301    6226    6225
CTETRA     19053       1    6016    3821    3443    6015
CTETRA     19054       1    2340    2901    2648    2339
CTETRA     19055       1    4201    5881    4111    5880
CTETRA     19056       1    2339    2303     649    2253
CTETRA     19057       1    1666    3087    2556    2006
CTETRA     19058       1    1826     726    6312    2228
CTETRA     19059       1     810    4197     799    1178
CTETRA     19060       1    5437    4544    4654    2056
CTETRA     19061       1    2056    2196    4640     911
CTETRA     19062       1    6383    3504    4148    6384
CTETRA     19063       1    2729    1343    2731    2849
CTETRA     19064       1    1664     834    1353    1100
CTETRA     19065       1    1660    1914    2414    2416
CTETRA     19066       1    2554    2261    4316    2406
CTETRA     19067       1    3811    5268    2985    3268
CTETRA     19068       1    2129    5274    3268    5267
CTETRA     19069       1    4012    6305    6230    6229
CTETRA     19070       1     640     608    2185     607
CTETRA     19071       1    1179    1180    1516    4892
CTETRA     19072       1    1706    2415    1119    1120
CTETRA     19073       1     608     607    1505    2185
CTETRA     19074       1    2731     608    1505    3261
CTETRA     19075       1     633    2012    2013     874
CTETRA     19076       1    3811    2129    5274    3268
CTETRA     19077       1    3690    2401    6518    6593
CTETRA     19078       1    3630    5295    6743    5285
CTETRA     19079       1    6014    3443    6015    6090
CTETRA     19080       1    3630    6742    5274    5285
CTETRA     19081       1    2616    5221    5252    5220
CTETRA     19082       1    2872    2931    1669    3148
CTETRA     19083       1     870    1922     771     606
CTETRA     19084       1    5014    2894    2270    5015
CTETRA     19085       1    1576    3113    1546    3292
CTETRA     19086       1     875     874    2013     903
CTETRA     19087       1    3113    3291    4463    3292
CTETRA     19088       1    2364    6030    6031    5955
CTETRA     19089       1    3113    1546    4510    5435
CTETRA     19090       1    4087    6106    6031    6030
CTETRA     19091       1    3113    1546    4462    4510
CTETRA     19092       1    1130    1034    1000    3399
CTETRA     19093       1     382     643     669     422
CTETRA     19094       1    3109    5434    4510    4526
CTETRA     19095       1    2238    4436    5398    4330
CTETRA     19096       1    4062    6245    6170    6169
CTETRA     19097       1    2247    2277     606    2670
CTETRA     19098       1    1692    3356    1916    1695
CTETRA     19099       1    4177    3766     368    3213
CTETRA     19100       1    1670    6008    5932    6007
CTETRA     19101       1    3220    5933    6008    6009
CTETRA     19102       1    1833    2623    2691    3144
CTETRA     19103       1    3624    2530    2848    1694
CTETRA     19104       1    3220    5933    6009    5934
CTETRA     19105       1    3438    2171    2172    3406
CTETRA     19106       1    2549    1903    1749    1696
CTETRA     19107       1    2236    4328    3288    3204
CTETRA     19108       1    2238    2150    4435    4432
CTETRA     19109       1    1625    1808    4071    4069
CTETRA     19110       1    4330    5399    2238    4344
CTETRA     19111       1    2507    2583    2520    2509
CTETRA     19112       1     822    6085    6010    6009
CTETRA     19113       1    3875    3354    5122    5119
CTETRA     19114       1    2623    3601    2579    3144
CTETRA     19115       1    1622    2297    2202    2581
CTETRA     19116       1    3191    6011    6087    6012
CTETRA     19117       1    1419    1513    2762    2761
CTETRA     19118       1    1534    3484    3456    4086
CTETRA     19119       1    5399    2238    4344    2262
CTETRA     19120       1    4045    6255    6256    6180
CTETRA     19121       1    3268    2972    5218    5219
CTETRA     19122       1    4090    6032    6108    6033
CTETRA     19123       1    3884    2972    3268    5219
CTETRA     19124       1    3612    3884    2972    3268
CTETRA     19125       1    3702    4199    2983    2318
CTETRA     19126       1    1533    1535    2023    1524
CTETRA     19127       1    3388    1521    1519    1523
CTETRA     19128       1    3811    6741    5268    5274
CTETRA     19129       1    2985    5268    6916    6838
CTETRA     19130       1    2819    6110    6111    6035
CTETRA     19131       1    3972    1534    1535    1533
CTETRA     19132       1    3419    3712    4121    3856
CTETRA     19133       1    3419    3271    3856    4121
CTETRA     19134       1    3821    6014    6015    5939
CTETRA     19135       1    2604    6013    5937    6012
CTETRA     19136       1    6986    5423    4485    4473
CTETRA     19137       1    3169    3821    4051    3182
CTETRA     19138       1    6012    3192    2604    6013
CTETRA     19139       1    3168    6164    6089    6088
CTETRA     19140       1    3909    4489    3275    4474
CTETRA     19141       1    3917    3611    2385    3375
CTETRA     19142       1    1713    6531     668    2925
CTETRA     19143       1     765    6314    6315    6239
CTETRA     19144       1    1653    3776    3419    3712
CTETRA     19145       1    3419    1685    1654    1656
CTETRA     19146       1    3173    6312    6237    6236
CTETRA     19147       1    1089    6456    6457    6381
CTETRA     19148       1    4207    6385    6310    6309
CTETRA     19149       1     726    6312    6387    6388
CTETRA     19150       1    6164    6240     765    3166
CTETRA     19151       1    3654    1991    5191    3428
CTETRA     19152       1    3696    4198    3486     230
CTETRA     19153       1    1632    6291    6923    6922
CTETRA     19154       1    3776    2153    3358    3419
CTETRA     19155       1    1653    3419    3358    1654
CTETRA     19156       1    2948    2250    3105    2809
CTETRA     19157       1    1790    2463     550    2656
CTETRA     19158       1     833    2809    1789    1353
CTETRA     19159       1    2739    5996    5997    5921
CTETRA     19160       1    1280    3544      38    1223
CTETRA     19161       1     439    1222    1725     571
CTETRA     19162       1    2382    2910    2909    5131
CTETRA     19163       1    3940    6029    5954    5953
CTETRA     19164       1    3808    3909    4473    2564
CTETRA     19165       1    2470    7038    7039    5208
CTETRA     19166       1    3909    4473    2564    4499
CTETRA     19167       1    2819    6109    4090    1469
CTETRA     19168       1    2875    3831    2948    3832
CTETRA     19169       1    2945    2876    2873    3919
CTETRA     19170       1    1197    3799    1487    1196
CTETRA     19171       1    1789    2809    2873    2948
CTETRA     19172       1    6311    4207    6310    3173
CTETRA     19173       1    1587    1786    1589    1377
CTETRA     19174       1    3537    6017    5941    6016
CTETRA     19175       1    1770    1785    1783    1899
CTETRA     19176       1    2051    3909    3275    4474
CTETRA     19177       1    3645    6395    6320    6319
CTETRA     19178       1    1028    4537    4538    4543
CTETRA     19179       1    3447    6092    6017    6016
CTETRA     19180       1    3393    6678    6603    6602
CTETRA     19181       1    3016    3808    4473    5423
CTETRA     19182       1     716    1873     982    1770
CTETRA     19183       1    2056    2196    4545    4625
CTETRA     19184       1    2733    6235    6236    6160
CTETRA     19185       1    3183    2696    3169    3167
CTETRA     19186       1    2453    1787    3038    1784
CTETRA     19187       1    2453    4006    1784    3038
CTETRA     19188       1    1897    2463    1095    1784
CTETRA     19189       1    2893    5992    5917    5916
CTETRA     19190       1    2463    4208    4006    1301
CTETRA     19191       1    2540    4667    4685    4687
CTETRA     19192       1    3682    6068    6069    5993
CTETRA     19193       1    2206    2204    4456    3088
CTETRA     19194       1    3241    5854    5779    5778
CTETRA     19195       1    4025    4202    2085    2087
CTETRA     19196       1    4025    2086    3618     953
CTETRA     19197       1    2602    4202    4025    3747
CTETRA     19198       1    2893    6068    5993    5992
CTETRA     19199       1    1903    3747    3554    2550
CTETRA     19200       1    1632    6291    6216    6923
CTETRA     19201       1    6069    6068    2587    6144
CTETRA     19202       1    3019    5212    5157    5156
CTETRA     19203       1    4021    6219    6144    6143
CTETRA     19204       1    1765    2692    5196    2459
CTETRA     19205       1    3113    1546    3292    4462
CTETRA     19206       1    3554    2550    3542    2545
CTETRA     19207       1    1117    1119    1757    3459
CTETRA     19208       1    3554    3351    3999    1747
CTETRA     19209       1    1467    6107    6182    6183
CTETRA     19210       1    1704    3940    4087    1705
CTETRA     19211       1    2375    6107    6031    6106
CTETRA     19212       1    6108    2375    6107    6032
CTETRA     19213       1    3851    3722    3940    4201
CTETRA     19214       1    3851    4201    2652    3722
CTETRA     19215       1    2604    6014    5938    6013
CTETRA     19216       1    1570    1546    2196    3292
CTETRA     19217       1    1991    1293    1292    5195
CTETRA     19218       1    3192    6089    6014    6013
CTETRA     19219       1    3851    4087    1705    1986
CTETRA     19220       1    3166    6165    6090    6089
CTETRA     19221       1    1546    4546    2196    3292
CTETRA     19222       1    1652    2498    3851    1987
CTETRA     19223       1     175    3602     176    2134
CTETRA     19224       1     944    1390    4994    4907
CTETRA     19225       1    3145    6479    6404    6403
CTETRA     19226       1    1546    4510    5435    4461
CTETRA     19227       1    3851    1987    2652    2364
CTETRA     19228       1    3712    3713    3382    3383
CTETRA     19229       1    3712    3797    3383    4121
CTETRA     19230       1     551    2657    3758    3020
CTETRA     19231       1    3895    6020    5944    6019
CTETRA     19232       1    4007    3712    3776    3636
CTETRA     19233       1    4056    2861    2836    2071
CTETRA     19234       1    2657    3713    3967    2656
CTETRA     19235       1    4170    5869    3895    5945
CTETRA     19236       1    3711    3380    3185    1607
CTETRA     19237       1     131    4145    3485    4186
CTETRA     19238       1     554    3712    1653    3419
CTETRA     19239       1    1653    1654    3358    1661
CTETRA     19240       1    6222    6146    2599    6221
CTETRA     19241       1    2437    4248    4218    2144
CTETRA     19242       1    2199    6000    6076    6001
CTETRA     19243       1    2005    6296    6221    6220
CTETRA     19244       1    3153    6073    5998    5997
CTETRA     19245       1    2279    6224    6225    6149
CTETRA     19246       1    1956    1952    1958    3229
CTETRA     19247       1    2144    2772    6806    4222
CTETRA     19248       1    1292    5195    5155    5156
CTETRA     19249       1    3419    4121    3712    3776
CTETRA     19250       1    3368    3893    3074    3352
CTETRA     19251       1    2772    2432    3229    4219
CTETRA     19252       1    3893    3368    5517    3352
CTETRA     19253       1    2772    2432    4219    4218
CTETRA     19254       1    2772    6807    4222    4227
CTETRA     19255       1    2772     826    6807    4227
CTETRA     19256       1    3893    1523    3388      57
CTETRA     19257       1    3893    5592    1523    2108
CTETRA     19258       1    3893    5517    3368    5516
CTETRA     19259       1     903    2359    2031     905
CTETRA     19260       1    2358    2359     903     959
CTETRA     19261       1    2143    6192    6193    6117
CTETRA     19262       1    3318    3316    5487    5562
CTETRA     19263       1     946     869     942    2060
CTETRA     19264       1    3374    3687    2018    3861
CTETRA     19265       1    3525    3706    4908    4909
CTETRA     19266       1    2454    6116    6041    6040
CTETRA     19267       1     903     942     962     959
CTETRA     19268       1     946     948     903     904
CTETRA     19269       1    2842    6189    6190    6114
CTETRA     19270       1    2740    3346    1870    3666
CTETRA     19271       1    2842    6264    6265    6189
CTETRA     19272       1    1558    2028     770     867
CTETRA     19273       1    3065    4963    4977    4964
CTETRA     19274       1    2179    5885    5886    5810
CTETRA     19275       1    3920    6333    6257    6332
CTETRA     19276       1    3990    6422    6346    6421
CTETRA     19277       1    2247    1669     771     870
CTETRA     19278       1    2642     436    3647     191
CTETRA     19279       1    4045    6256    6181    6180
CTETRA     19280       1    1312     568    1106    1160
CTETRA     19281       1    1704    6105    6030    6029
CTETRA     19282       1    1533    1522    1540    1525
CTETRA     19283       1    1522    1525    1349    1541
CTETRA     19284       1    4140    3808    3464    3494
CTETRA     19285       1    1704    6103    6104    6028
CTETRA     19286       1    1533    1524    2023    1540
CTETRA     19287       1    1522    4155    1540    2021
CTETRA     19288       1    6181    2600    6182    6257
CTETRA     19289       1    2477    1623    2017    2015
CTETRA     19290       1    4063    2904    2505    2036
CTETRA     19291       1    1349    1523    1530    1519
CTETRA     19292       1    3000    5029    5020    4996
CTETRA     19293       1    2348    5010    4916    5012
CTETRA     19294       1    3064    6260    6336    6261
CTETRA     19295       1    1540    1524    2023    4155
CTETRA     19296       1    4155    1522    1540    1524
CTETRA     19297       1    2993    6113    6038    6037
CTETRA     19298       1    2376    6113    6188    6189
CTETRA     19299       1    3739    2512    2071    3021
CTETRA     19300       1    3808    3494    3909    2564
CTETRA     19301       1    1653    1656    1655    1668
CTETRA     19302       1     556    3800    1653    3776
CTETRA     19303       1    1864    4072    2435    4170
CTETRA     19304       1    3419    3358    1654    2153
CTETRA     19305       1    2051    3909    4141    3275
CTETRA     19306       1    2564    2475    4500    4505
CTETRA     19307       1    1776    1795    4073    4071
CTETRA     19308       1    3909    2564    3334    4499
CTETRA     19309       1    3808    4504    2564    4473
CTETRA     19310       1    2564    2475    3334    4500
CTETRA     19311       1    2712    2017    2700    4761
CTETRA     19312       1    1213    1824    1091    1096
CTETRA     19313       1    6522    1685    6446    1654
CTETRA     19314       1    2851    2258    2672    3818
CTETRA     19315       1    6221    6222    2610    2599
CTETRA     19316       1    2860    2042    2039    2041
CTETRA     19317       1    3153    6148    6072    6147
CTETRA     19318       1    6447    1655    1661    1654
CTETRA     19319       1    2042    3033    2039    2040
CTETRA     19320       1    1685    1655    6446    1654
CTETRA     19321       1    2851    3818    4167    5641
CTETRA     19322       1    3687    3412    3861    3842
CTETRA     19323       1    2864    6097    6021    6096
CTETRA     19324       1    1654    3358    6523    6522
CTETRA     19325       1    1454    1497    1453    3116
CTETRA     19326       1    2684     474    2394    2395
CTETRA     19327       1    1654    3358    6522    2153
CTETRA     19328       1    4099    6099    6100    6024
CTETRA     19329       1    2375    6032    5957    5956
CTETRA     19330       1     967     940    5117    5115
CTETRA     19331       1     437    3233    3381    2313
CTETRA     19332       1    1440    5036    3706    3757
CTETRA     19333       1    2896    3734    3379    4124
CTETRA     19334       1    2519    2522    3902    2193
CTETRA     19335       1    2819    6110    6035    6034
CTETRA     19336       1    2062    2888    5483     107
CTETRA     19337       1    4218    2437    2772    2432
CTETRA     19338       1    2143    2246    3794    6042
CTETRA     19339       1    2230    1426    3155    3067
CTETRA     19340       1    2384    1426    2352    2534
CTETRA     19341       1    2865    6023    5947    6022
CTETRA     19342       1     776    4123    3684    2231
CTETRA     19343       1    3679    6023    6024    5948
CTETRA     19344       1    2231    3684    4124    4123
CTETRA     19345       1    6804    2144    6826    4259
CTETRA     19346       1    3172    6327    6252    6251
CTETRA     19347       1    2608    3771    2229    2609
CTETRA     19348       1    2608    1735    3053    2609
CTETRA     19349       1     701    4169    3895    5945
CTETRA     19350       1    3679    6099    6024    6023
CTETRA     19351       1    2437    4249    2958    3685
CTETRA     19352       1    2952    5008    5009    5011
CTETRA     19353       1    2229    2609    3067    3684
CTETRA     19354       1    3178    3173    4018    2733
CTETRA     19355       1    2437    4258    2958    4249
CTETRA     19356       1    3377    6554    6553    6629
CTETRA     19357       1    3744    6175    6100    6099
CTETRA     19358       1    3646     486    2468    3381
CTETRA     19359       1    2297    3894    3151    4126
CTETRA     19360       1    3476    1758    1755    3995
CTETRA     19361       1    1443    1028    2052    2208
CTETRA     19362       1    2851    5641    2860    2042
CTETRA     19363       1    2908    2910     436    2909
CTETRA     19364       1     880    1994    1992    3465
CTETRA     19365       1    2653    2266    2267    1992
CTETRA     19366       1    2151    6002    5927    5926
CTETRA     19367       1    4248    2432    4249    2437
CTETRA     19368       1    2851    2860    2853    2041
CTETRA     19369       1     878    3995    1994    3465
CTETRA     19370       1    1595     702    1250    2715
CTETRA     19371       1    6154    1666    2556    6079
CTETRA     19372       1    1250    1252    1387    2333
CTETRA     19373       1     798    1670    6007    6008
CTETRA     19374       1    2400    5211    1292    5154
CTETRA     19375       1    1252    3691    4118    3865
CTETRA     19376       1    2556    6078    6003    6002
CTETRA     19377       1    3859    3489    2314    3418
CTETRA     19378       1    4209    1957    1959    2438
CTETRA     19379       1    1252    1387    2333    4118
CTETRA     19380       1     699    6095    6019    6094
CTETRA     19381       1    2486    1941    3786     645
CTETRA     19382       1    2285    6093    6094    6018
CTETRA     19383       1     701    6095    6096    6020
CTETRA     19384       1    2668    1888    4180    1889
CTETRA     19385       1    3538    5943    5868    5867
CTETRA     19386       1    1387    4118    4199    3783
CTETRA     19387       1    3076    6324    6249    6248
CTETRA     19388       1    3435    1809    1413    1807
CTETRA     19389       1    4168    3206    4115    3891
CTETRA     19390       1    2935    4097    4168     416
CTETRA     19391       1    1396    6211    6135    6210
CTETRA     19392       1    1456    1061    1415    3101
CTETRA     19393       1    1033    6169    6094    6093
CTETRA     19394       1     340    6413    6414    6338
CTETRA     19395       1    2934     415    3176     106
CTETRA     19396       1     415    3429    3625    3250
CTETRA     19397       1    2599    6222    2610    6147
CTETRA     19398       1    2293    6071    6072    5996
CTETRA     19399       1    3159    1397    5275    5290
CTETRA     19400       1    2617    3049    5222    1644
CTETRA     19401       1    2854    2183    3363    3939
CTETRA     19402       1    2131    5266    2413    5265
CTETRA     19403       1    2599    6147    6072    6071
CTETRA     19404       1    4168    4115    1810    3250
CTETRA     19405       1    2574    2279    6224    6299
CTETRA     19406       1    4168     416    1163     413
CTETRA     19407       1    3440    6092    6093    6017
CTETRA     19408       1    3443    6091    6015    6090
CTETRA     19409       1     415    4168     413     416
CTETRA     19410       1    6491     645    2159    6416
CTETRA     19411       1    1867    1896    1893    1892
CTETRA     19412       1    2557    4316    4415    4416
CTETRA     19413       1    1862    1884    2539    1867
CTETRA     19414       1    1039    6397    6398    6322
CTETRA     19415       1    5559    2888    5483    2018
CTETRA     19416       1    5647    4147    5648    5723
CTETRA     19417       1    2740    4129    3666    3664
CTETRA     19418       1     700    6171    6096    6095
CTETRA     19419       1    1997    1731    2929    4894
CTETRA     19420       1    4018    6163    6088    6087
CTETRA     19421       1    1867    1879    1888    1878
CTETRA     19422       1    3443    6166    6091    6090
CTETRA     19423       1    1869    2740    1870    1868
CTETRA     19424       1    1870    3346    1882    1879
CTETRA     19425       1    3975    4065    3370    4108
CTETRA     19426       1     798    6083    6084    6008
CTETRA     19427       1    1670    6008    5933    5932
CTETRA     19428       1     822    6084    6085    6009
CTETRA     19429       1    2503    4375    4331    4374
CTETRA     19430       1    4190    1882    3493    1879
CTETRA     19431       1     340    6338    6414    6339
CTETRA     19432       1    4011    6230    6305    6306
CTETRA     19433       1    4148    6232    6308    6233
CTETRA     19434       1    3346    3347    3462    1878
CTETRA     19435       1     688    5249    5250    5245
CTETRA     19436       1     989    6489    6490    6414
CTETRA     19437       1    2484    2503    5412    4377
CTETRA     19438       1    3789    5487    5412    5411
CTETRA     19439       1     798    6084    6009    6008
CTETRA     19440       1    3592    2637     971    1727
CTETRA     19441       1    1058    1922    1929    2846
CTETRA     19442       1    1058    1923    1922     606
CTETRA     19443       1    2503    3715    4372    2504
CTETRA     19444       1    1279    1292    1291    2459
CTETRA     19445       1     218    3426     606    1058
CTETRA     19446       1    2123    6005    5930    5929
CTETRA     19447       1     218     216    3426    6471
CTETRA     19448       1    3939    2503    2504    3715
CTETRA     19449       1    2006    6080    6004    6079
CTETRA     19450       1     218    1058    1923    6546
CTETRA     19451       1     218    1058     606    1923
CTETRA     19452       1    2571    6081    6157    6082
CTETRA     19453       1    1058     202    2846     938
CTETRA     19454       1    3823    6005    6081    6006
CTETRA     19455       1    3318    3360    3316    5562
CTETRA     19456       1    1058     938    1929    1923
CTETRA     19457       1    3600    3125     231    3126
CTETRA     19458       1    3381    3233    2910    5139
CTETRA     19459       1    4019    6237    6238    6162
CTETRA     19460       1    1785    2301    1899    2723
CTETRA     19461       1     740    3167     766     765
CTETRA     19462       1    5292    3123    5293    5300
CTETRA     19463       1    5300    2188    5292    3123
CTETRA     19464       1    3123    5293    3403    3010
CTETRA     19465       1    6155    4012    6230    6154
CTETRA     19466       1    1786     629    3534    3508
CTETRA     19467       1    3941    2723    4046     573
CTETRA     19468       1     573     571    1924    1688
CTETRA     19469       1    3224    6181    6106    6105
CTETRA     19470       1     645    6417    6492    6493
CTETRA     19471       1    2364    5956    5881    5880
CTETRA     19472       1    2854    3322    2041    4193
CTETRA     19473       1    1704    6104    6105    6029
CTETRA     19474       1    3419    4121    3776    2153
CTETRA     19475       1    3006    3123    5301    3403
CTETRA     19476       1    3172    6327    6251    6326
CTETRA     19477       1    3376    3006    3100    3123
CTETRA     19478       1     418     417    2446    7038
CTETRA     19479       1    6259    2600    6258    6183
CTETRA     19480       1    3168    6163     765    6164
CTETRA     19481       1    1590    2584    2585    2996
CTETRA     19482       1    2691    2693    1981    4151
CTETRA     19483       1    2139    6011    5936    5935
CTETRA     19484       1    2139    6011    6012    5936
CTETRA     19485       1    2106    3029    2871    4273
CTETRA     19486       1    3357    3583    2548    1694
CTETRA     19487       1    3824    4075    4020    3546
CTETRA     19488       1     799    6234    6159    6158
CTETRA     19489       1    3233    5131    5139    5132
CTETRA     19490       1    3824    4020    3577    3546
CTETRA     19491       1    2743    3546    3824    3577
CTETRA     19492       1    3356    2743    3546    3824
CTETRA     19493       1    1035    1698    1034    3729
CTETRA     19494       1    2660    1700    2662    1287
CTETRA     19495       1    1001    3723    1029    3724
CTETRA     19496       1     998     999     977    2949
CTETRA     19497       1    2949    2189     977     998
CTETRA     19498       1    2607    3899    2957    2392
CTETRA     19499       1    6089    3192    6014    6090
CTETRA     19500       1    6012    3191    3192    6087
CTETRA     19501       1    1039    6322    6323    6247
CTETRA     19502       1     294    4949    4961    4950
CTETRA     19503       1      76    2106    4261    4265
CTETRA     19504       1     990     994    1001     999
CTETRA     19505       1    2160    6416    6341    6340
CTETRA     19506       1    2382    7031    5139    7030
CTETRA     19507       1    2801    6132    6207    6208
CTETRA     19508       1    1560    2960    3492    3082
CTETRA     19509       1    3059    2244    6192    6268
CTETRA     19510       1    4170    3538    3895    5869
CTETRA     19511       1    4018    6162    6163    6087
CTETRA     19512       1    2854    3360    3816    3315
CTETRA     19513       1    1555    1556    3234    1111
CTETRA     19514       1    3243    3240    3249    1172
CTETRA     19515       1    1409    2935    1810     415
CTETRA     19516       1    3251    3250    1809    3252
CTETRA     19517       1    6151    2655    6075    6076
CTETRA     19518       1    6156    1178    4011    2571
CTETRA     19519       1    3251    1409    1809    1810
CTETRA     19520       1    1804    3243    3249    1171
CTETRA     19521       1    2119    2059    7034    7035
CTETRA     19522       1    3324    3242    3240    3241
CTETRA     19523       1    3249    1172    1173    1171
CTETRA     19524       1    4021    6067    6142    6143
CTETRA     19525       1    3181    2492    1895    3240
CTETRA     19526       1    1567    2183    2182    4171
CTETRA     19527       1    3148     770     217    1669
CTETRA     19528       1    2417    2418     214    2423
CTETRA     19529       1    1967    3880    1453    3148
CTETRA     19530       1    1467    6183    6108    6107
CTETRA     19531       1     336    6185    6261    6186
CTETRA     19532       1    2878    5025    5024    5030
CTETRA     19533       1     129    2446    7036    7037
CTETRA     19534       1    2716    6259    6184    6183
CTETRA     19535       1    2014    2028    2090     932
CTETRA     19536       1     947     867     355    2028
CTETRA     19537       1    2028     772     771    1926
CTETRA     19538       1    2973    3363    3209    2975
CTETRA     19539       1    2689    6026    5951    5950
CTETRA     19540       1    4100    6026    6027    5951
CTETRA     19541       1    2106    2799    4262    3239
CTETRA     19542       1     867     770     771    2028
CTETRA     19543       1    3659    3660    3827    2411
CTETRA     19544       1    2106    4262    2799    4261
CTETRA     19545       1    3660    2557    4185    2048
CTETRA     19546       1    3660    2517    3704    2048
CTETRA     19547       1    3224    6182    6106    6181
CTETRA     19548       1    4084    2213    6950    6949
CTETRA     19549       1    2719    2870    2613    5035
CTETRA     19550       1    3704    2517    4060    4063
CTETRA     19551       1    3032    2445    2446     417
CTETRA     19552       1    2174    3705     176    3661
CTETRA     19553       1    2106    2997    4262    4267
CTETRA     19554       1    4021    6143    6144    6068
CTETRA     19555       1    2893    6067    5992    5991
CTETRA     19556       1    3576    3158    3519     934
CTETRA     19557       1    3659    2411    3828    3660
CTETRA     19558       1    3660    3662    3704    3661
CTETRA     19559       1    2939    6297    6372    6373
CTETRA     19560       1    4021    6143    6068    6067
CTETRA     19561       1    2320    5214    5263    5215
CTETRA     19562       1    4198    3165    2897    7040
CTETRA     19563       1    3417    6217    6141    6216
CTETRA     19564       1    4267    2997    2890    2106
CTETRA     19565       1    1978    2907    1959    3790
CTETRA     19566       1    3363    2183    3369    3939
CTETRA     19567       1    2588    6220    6144    6219
CTETRA     19568       1    4196    2106    3239    2799
CTETRA     19569       1    1956    1952    3229    4037
CTETRA     19570       1    1950    2764    1958    3656
CTETRA     19571       1    4132    6070    5995    5994
CTETRA     19572       1    4011    1548    1178    6231
CTETRA     19573       1    3013    6294    6219    6218
CTETRA     19574       1    2907    1950    1952    1953
CTETRA     19575       1    1953    2907    1968    4037
CTETRA     19576       1    6151    2655    6150    6075
CTETRA     19577       1    2293    6145    6146    6070
CTETRA     19578       1    5197    2692    5193    1293
CTETRA     19579       1    1956    2907    4037    4000
CTETRA     19580       1    1968    3226    1972    4037
CTETRA     19581       1    1978    3226    2907    3790
CTETRA     19582       1     950    5015    5019    6872
CTETRA     19583       1    3790    4000    2907    1959
CTETRA     19584       1    4121    3006    2292    3403
CTETRA     19585       1    2970    6745    2292    3384
CTETRA     19586       1    4100    6026    6102    6027
CTETRA     19587       1    3605    3454    2905    2819
CTETRA     19588       1    1432    6178    6103    6102
CTETRA     19589       1     829     828    1167    1286
CTETRA     19590       1    6175    3172    6176    6251
CTETRA     19591       1    1868    1854    1893    1853
CTETRA     19592       1    1868    1854    2357    1892
CTETRA     19593       1    4129    2936    2788    4094
CTETRA     19594       1    1433    6178    6179    6103
CTETRA     19595       1    1870    1879    1878    3346
CTETRA     19596       1    2292    2971    5297    5304
CTETRA     19597       1    1870    4154    1868    3666
CTETRA     19598       1    2576    2693    2567    2561
CTETRA     19599       1    2292    3385    5296    5297
CTETRA     19600       1    4121    3384    2292    3100
CTETRA     19601       1    1847    2862    3791    3576
CTETRA     19602       1    5887    2905    5886    2178
CTETRA     19603       1    3019    5212    5156    5211
CTETRA     19604       1    2292    5296    3403    5303
CTETRA     19605       1    2599    6147    6071    6146
CTETRA     19606       1    1325    3195    1847    2862
CTETRA     19607       1    2199    6074    6075    5999
CTETRA     19608       1    2506    2507    2561    2508
CTETRA     19609       1    3104    6149    6074    6073
CTETRA     19610       1    1325    3195    2862    2807
CTETRA     19611       1    3179    3631    2138    2139
CTETRA     19612       1    6444    1684    3005    6445
CTETRA     19613       1    2130    5273    2131    5272
CTETRA     19614       1    1404    2604    3182    2785
CTETRA     19615       1    6267    3059    2374    1283
CTETRA     19616       1    2635    1720    1752    2630
CTETRA     19617       1    4057    6190    1282    2455
CTETRA     19618       1    2455    6267    6192    6191
CTETRA     19619       1    2454    6191    6116    6115
CTETRA     19620       1    1211    1209    1954    2675
CTETRA     19621       1    4099    6101    6026    6025
CTETRA     19622       1    6742    3630    5274    3811
CTETRA     19623       1    4100    6101    6102    6026
CTETRA     19624       1    1686    4599    4596    4603
CTETRA     19625       1    2129    5285    5274    5273
CTETRA     19626       1    3920    6331    3117    6406
CTETRA     19627       1    1432    6177    6178    6102
CTETRA     19628       1    2553    5843     325    5842
CTETRA     19629       1    2608    1732    1428    2591
CTETRA     19630       1    3442    6242    6167    6166
CTETRA     19631       1    2450    2498    1987    2651
CTETRA     19632       1    2704    5194    2692    5193
CTETRA     19633       1    3442    6167    6092    6091
CTETRA     19634       1    3192    6089    6013    6088
CTETRA     19635       1    2129    3829    5266    5267
CTETRA     19636       1    1384    3055    3783    1369
CTETRA     19637       1    3166    6164    6165    6089
CTETRA     19638       1    3052    3271    2971    2130
CTETRA     19639       1    2837    3219    5130    2382
CTETRA     19640       1    2970    3052    6669    6670
CTETRA     19641       1    2553    5993    3682    5918
CTETRA     19642       1    3885    2675    1710    2651
CTETRA     19643       1    1710    2651    4173    3885
CTETRA     19644       1    2858    4104    2856    4143
CTETRA     19645       1    3013    4021    6217    6218
CTETRA     19646       1    1110    2175    3659    1388
CTETRA     19647       1    2671    2860    2851    2672
CTETRA     19648       1    2130    5285    5289    5295
CTETRA     19649       1    2553    2927     325    2812
CTETRA     19650       1    1370    2671    1571    1964
CTETRA     19651       1    2258    2850    2783    4164
CTETRA     19652       1    2258    2783    2784    2257
CTETRA     19653       1    3447    6092    6016    6091
CTETRA     19654       1       6       5    4195    3571
CTETRA     19655       1    3582    6206    6207    6131
CTETRA     19656       1    1964    2434    2258    2257
CTETRA     19657       1    3440    6168    6093    6092
CTETRA     19658       1    2853    2859    2182    2041
CTETRA     19659       1    1836    2672    2436    2667
CTETRA     19660       1    1571    2257    2258    2784
CTETRA     19661       1    2716    6334    6335    6259
CTETRA     19662       1     325    2814    4133    4054
CTETRA     19663       1    1738    3437    2546    1750
CTETRA     19664       1    1600    1332    1333    1334
CTETRA     19665       1    3164     645    2159    6491
CTETRA     19666       1    1097    1186    1761    4133
CTETRA     19667       1    2120     486    7033    2613
CTETRA     19668       1    2748    3981    3976    2751
CTETRA     19669       1    3701    6185    6110    6109
CTETRA     19670       1    3149    6640       7    6639
CTETRA     19671       1     134    2050    6791    6790
CTETRA     19672       1    2611    6297    6222    6221
CTETRA     19673       1    3149    6639       7    6714
CTETRA     19674       1     887    3982    3682    1236
CTETRA     19675       1    3733     624     637    1304
CTETRA     19676       1    1765    4898    2924    5196
CTETRA     19677       1    3004    6073    6074    5998
CTETRA     19678       1    1999     539    3733    1304
CTETRA     19679       1    2340    4206    2648    3400
CTETRA     19680       1    2648    4206    1331     523
CTETRA     19681       1    2648    2339     649    2340
CTETRA     19682       1    3104    6074    6150    6075
CTETRA     19683       1    1292    5211    5156    5155
CTETRA     19684       1    1332    1333    1170    2779
CTETRA     19685       1    2648    1331    1344     523
CTETRA     19686       1     258    1042    1043     882
CTETRA     19687       1    2342    2304    2305    3267
CTETRA     19688       1    6264    2376    2842    3615
CTETRA     19689       1     680    2245     637    5254
CTETRA     19690       1    2814    2553     325    2812
CTETRA     19691       1    4057    6264    6340    6265
CTETRA     19692       1    6420    2373    6419    3225
CTETRA     19693       1    2646     873    2648    3170
CTETRA     19694       1    6355    4023    4075    4020
CTETRA     19695       1    2648    2647    1344     873
CTETRA     19696       1    1632    6292    6217    6216
CTETRA     19697       1    4055    2814    3982    2553
CTETRA     19698       1    2649    2648    2100    3258
CTETRA     19699       1    1702    1732     775     777
CTETRA     19700       1     740    6317    6241    6316
CTETRA     19701       1    2662    1356    3723    2661
CTETRA     19702       1    2661    3723    4210    1016
CTETRA     19703       1     699    6170    6095    6094
CTETRA     19704       1    2663    3362    3487    4122
CTETRA     19705       1    1699    3379    3488    3729
CTETRA     19706       1    4111    5881    5806    5805
CTETRA     19707       1     637    1179    4891    5254
CTETRA     19708       1    1040    6171    6172    6096
CTETRA     19709       1    2120     128    7032    7031
CTETRA     19710       1    1034    1698     776    3729
CTETRA     19711       1     739    6391    6392    6316
CTETRA     19712       1    3534    3733     539     631
CTETRA     19713       1     637    1304    4891    1179
CTETRA     19714       1    4158    6325    6400    6401
CTETRA     19715       1    3118     969    1372    6552
CTETRA     19716       1    1248    2315    3489    1493
CTETRA     19717       1    1035    1014    1001    3723
CTETRA     19718       1    2569    6153    6078    6077
CTETRA     19719       1    2616    6896    5284    5220
CTETRA     19720       1    1109    1112    1389    1388
CTETRA     19721       1    1454    6255    6180    6179
CTETRA     19722       1    3878    3866    4997    3000
CTETRA     19723       1    3706    2467    5036    5039
CTETRA     19724       1    3531    3530    1431    4058
CTETRA     19725       1    4126    3642    3643    4125
CTETRA     19726       1     739    6391    6316    6315
CTETRA     19727       1    2313    3741    5138    4134
CTETRA     19728       1    3345    1440    3706    3757
CTETRA     19729       1    1484    6180    6104    6179
CTETRA     19730       1     952    4280    3285    4281
CTETRA     19731       1    2879    5999    5924    5923
CTETRA     19732       1     710    6463    6464    6388
CTETRA     19733       1    3108    3530    3107    1853
CTETRA     19734       1    3216    4128    3285    2150
CTETRA     19735       1    3108    3333    3530    3722
CTETRA     19736       1    3076    6398    6399    6323
CTETRA     19737       1    1033    6169    6093    6168
CTETRA     19738       1     700    6170    6171    6095
CTETRA     19739       1    2171    5398    2249    3991
CTETRA     19740       1     723    6465    6466    6390
CTETRA     19741       1    2445    7036    2446    5149
CTETRA     19742       1    3107    3530    1854    1853
CTETRA     19743       1    4192    4058    1855    3221
CTETRA     19744       1     432    1898    1873    1770
CTETRA     19745       1    4062    6244    6245    6169
CTETRA     19746       1    1855    3530    3888    4058
CTETRA     19747       1    3531    3889    4058    3940
CTETRA     19748       1    1854    3530    3888    1855
CTETRA     19749       1    3285    4128    4282    4434
CTETRA     19750       1     724     750    3500     751
CTETRA     19751       1    3873    1626     100    1619
CTETRA     19752       1    1899    1495    1492    1731
CTETRA     19753       1    2723    2461    1248    1899
CTETRA     19754       1    3166    6241    6166    6165
CTETRA     19755       1    1782    1996    3517    1999
CTETRA     19756       1     740    6315    6316    6240
CTETRA     19757       1     929    1390    4907    5117
CTETRA     19758       1    1028    1444    3264    3260
CTETRA     19759       1    2798    1619    2774    2776
CTETRA     19760       1    3285    3642    4282    4128
CTETRA     19761       1    3651    4041    3378    4177
CTETRA     19762       1    1039    6321    6322    6246
CTETRA     19763       1    1619    2774     208    1620
CTETRA     19764       1    1619    1626     100    2776
CTETRA     19765       1    1454    6178    6253    6254
CTETRA     19766       1    2622    5732    5657    5656
CTETRA     19767       1    1432    6177    6102    6101
CTETRA     19768       1    3977    3202    3214    3217
CTETRA     19769       1    3744    6175    6176    6100
CTETRA     19770       1    4118    3692    3691    3270
CTETRA     19771       1    3978    3216    3217    3977
CTETRA     19772       1    3595    1384    3758    3783
CTETRA     19773       1    4045    6331    6256    6255
CTETRA     19774       1    3834    4211    2176    3835
CTETRA     19775       1     512    3353    1463    2933
CTETRA     19776       1    3173    6312    6236    6311
CTETRA     19777       1       8    4975    3062    4969
CTETRA     19778       1     799    6083    6159    6084
CTETRA     19779       1     898    1610    5614    5689
CTETRA     19780       1    1387    1369    1384    3783
CTETRA     19781       1    1252    4118    2333    3865
CTETRA     19782       1     798    6083    6008    6007
CTETRA     19783       1    4012    6303    6304    6228
CTETRA     19784       1     668    1089    6456    6457
CTETRA     19785       1    3065    4980    4977    4970
CTETRA     19786       1    2925    6456    6380    6455
CTETRA     19787       1     726     725    6387    2228
CTETRA     19788       1     799    6158    6159    6083
CTETRA     19789       1    3435    1803    3430    1216
CTETRA     19790       1    2655    2573    6076    6151
CTETRA     19791       1    1215    3436    3438    3430
CTETRA     19792       1    2099    3389      94     622
CTETRA     19793       1    4982    4980    4977    3065
CTETRA     19794       1    3199    1622    3675    4069
CTETRA     19795       1    2571    6155    6156    6080
CTETRA     19796       1    2612    2467    2816    2469
CTETRA     19797       1    2006    6080    6005    6004
CTETRA     19798       1    3823    6080    6081    6005
CTETRA     19799       1    3833    1291    1280    1279
CTETRA     19800       1    3062    6787    4981    4975
CTETRA     19801       1    2617    5283    5284    5275
CTETRA     19802       1     898     918     873    5613
CTETRA     19803       1    3199    1622    3894    3675
CTETRA     19804       1     898    5614    1610    1598
CTETRA     19805       1    3638    6469    6394    6393
CTETRA     19806       1     928    6810    6809    4237
CTETRA     19807       1    2571    6080    6156    6081
CTETRA     19808       1    1958    2772     826    2980
CTETRA     19809       1    1178    6233    6158    6157
CTETRA     19810       1    2759     783    4085    4212
CTETRA     19811       1    3375    2248    3233    5132
CTETRA     19812       1    4011    4012    6230    6155
CTETRA     19813       1     131    3165    7070    2837
CTETRA     19814       1     928     826    2982    4229
CTETRA     19815       1    4212     783    4085     784
CTETRA     19816       1    3568    2097     783     784
CTETRA     19817       1    3568    4212    2759    2760
CTETRA     19818       1    4059    5021    5020    5023
CTETRA     19819       1    2600    6182    6258    6183
CTETRA     19820       1    4045    6256    6257    6181
CTETRA     19821       1     392      55     126     125
CTETRA     19822       1    3568     612    4212    4042
CTETRA     19823       1    3568     784    4212     612
CTETRA     19824       1    1067    1068    1066    2287
CTETRA     19825       1    2138    6086    6011    6010
CTETRA     19826       1     826    2982    4229    2092
CTETRA     19827       1    1049    5086    5087    5070
CTETRA     19828       1    6303    4014    6228    4012
CTETRA     19829       1    6318     856    6242    6243
CTETRA     19830       1    1074     380    1482    1479
CTETRA     19831       1    1467    6107    3224    6182
CTETRA     19832       1     765    6238    6239    6163
CTETRA     19833       1    4018    6161    6162    6086
CTETRA     19834       1     826    2092    4225    4226
CTETRA     19835       1     955    1413    3199    1216
CTETRA     19836       1    1890    2145    2147    2605
CTETRA     19837       1    2673     769    3914    1080
CTETRA     19838       1     515    1707     563    1463
CTETRA     19839       1    2340    1331    2648    4206
CTETRA     19840       1    2296     769    2295    3914
CTETRA     19841       1    2733    6235    6160    6159
CTETRA     19842       1    2295    1033    1079    2287
CTETRA     19843       1    3186    3198    3110    5432
CTETRA     19844       1    4019    6162    6238    6163
CTETRA     19845       1    3173    6237    6162    6161
CTETRA     19846       1    6385    3504    4207    4116
CTETRA     19847       1    1067    2295     769    1080
CTETRA     19848       1    4200    3234    3660    3827
CTETRA     19849       1    2122     673    2186    2294
CTETRA     19850       1    1968    4074    4037    1972
CTETRA     19851       1    1513    1951    1512    1965
CTETRA     19852       1    2690    2761    2764    1950
CTETRA     19853       1    3104    6149    6150    6074
CTETRA     19854       1    1966    1972    1514    4106
CTETRA     19855       1    3110    3198    5433    5432
CTETRA     19856       1    1966    1951    1953    4181
CTETRA     19857       1    2733    6160    6084    6159
CTETRA     19858       1    6085    2138    6086    6161
CTETRA     19859       1    3291    3113    4515    4529
CTETRA     19860       1    3110    4530    5433    4526
CTETRA     19861       1    1966    1951    4181    1965
CTETRA     19862       1    2821    2839    2242    2449
CTETRA     19863       1    2242    1948    3478    1938
CTETRA     19864       1    6257    2600    6258    6333
CTETRA     19865       1    2242    3478    4083    2826
CTETRA     19866       1    1178    6232    6233    6157
CTETRA     19867       1    2242    4083    2072    2826
CTETRA     19868       1    2242    2072    2834    2826
CTETRA     19869       1    2337    6332    6408    6333
CTETRA     19870       1    3866    5020    5022    4997
CTETRA     19871       1    2600    6258    6182    6257
CTETRA     19872       1    2242    2839    2072    2243
CTETRA     19873       1    1246    1247    1248    3272
CTETRA     19874       1    1245    3092    2400    2162
CTETRA     19875       1    3743    4997    4998    4999
CTETRA     19876       1    1245    1246    3681    1247
CTETRA     19877       1    1478    5241    5213    5212
CTETRA     19878       1    3953    6446    6371    6370
CTETRA     19879       1    3563    4111    2652    3311
CTETRA     19880       1    1245    1336    3092    2162
CTETRA     19881       1    2587    6145    6070    6069
CTETRA     19882       1    3186    3193    2736    3367
CTETRA     19883       1    3291    4529    4528    3110
CTETRA     19884       1    3103    3295    2574    3104
CTETRA     19885       1    1246    1300    3681    1094
CTETRA     19886       1    2610    6222    6223    6147
CTETRA     19887       1    1245    1246    1248    2722
CTETRA     19888       1    2461    1246    1897    1898
CTETRA     19889       1    1193    3129    1277    1276
CTETRA     19890       1    2134    2133    2394    3018
CTETRA     19891       1    1194    3246    3129    3964
CTETRA     19892       1    2837    3219    2686    5130
CTETRA     19893       1    2574    6148    6223    6224
CTETRA     19894       1    4014    6153    6154    6078
CTETRA     19895       1    3677    6155    6080    6079
CTETRA     19896       1    4514    3291    4529    4528
CTETRA     19897       1    4014    6229    6154    6153
CTETRA     19898       1     719    6313    6238    6237
CTETRA     19899       1    6380    6304    1549    2389
CTETRA     19900       1    2389    6454    6379    6378
CTETRA     19901       1    2458    2456    2568    2080
CTETRA     19902       1    1767    6213    6288    6289
CTETRA     19903       1    2568    2457    1277    2456
CTETRA     19904       1    3110    3193    4532    4528
CTETRA     19905       1    4021    6218    6219    6143
CTETRA     19906       1    4039    6292    6368    6293
CTETRA     19907       1    3417    6142    6067    6066
CTETRA     19908       1    1815    1856    1192    2965
CTETRA     19909       1    3129    2457    3018    3128
CTETRA     19910       1    2775     208    6437    3330
CTETRA     19911       1    4021    6218    6143    6142
CTETRA     19912       1    1579    2480    3008    2568
CTETRA     19913       1    2791    1914    2416    3906
CTETRA     19914       1    2611    6372    6297    6296
CTETRA     19915       1    3003    5226    5227    5241
CTETRA     19916       1    2533    2512    2833    2836
CTETRA     19917       1    2833    2514    4056    2512
CTETRA     19918       1    2374    6419    6343    6418
CTETRA     19919       1    1283    6267    6342    6343
CTETRA     19920       1    2833    3526    2847    4061
CTETRA     19921       1    2833    3526    4061    4052
CTETRA     19922       1    2240    5019    5014    5017
CTETRA     19923       1    2894    5015    5014    5019
CTETRA     19924       1    2833    4052    3541    3526
CTETRA     19925       1    1432    4100    6101    6102
CTETRA     19926       1    1432    6176    6177    6101
CTETRA     19927       1    4198    4186    3956    2704
CTETRA     19928       1    3585    1608    2612    2870
CTETRA     19929       1    2833    2514    4052    4056
CTETRA     19930       1    2833    3541    2848    3526
CTETRA     19931       1    2469    2613    2870    5041
CTETRA     19932       1    1497    6253    6178    6177
CTETRA     19933       1    5014    2952    5008    5009
CTETRA     19934       1    2515     192     191     190
CTETRA     19935       1    3136    6422    3990    6421
CTETRA     19936       1    2642    3646    3647    2908
CTETRA     19937       1    3646    2816    3647    2468
CTETRA     19938       1    3906    3461    5839    3460
CTETRA     19939       1    1053    6173    6174    6098
CTETRA     19940       1    2864    6098    6023    6022
CTETRA     19941       1    3745    6174    6250    6175
CTETRA     19942       1    3222    1028    4470    4537
CTETRA     19943       1    2138    6086    6010    6085
CTETRA     19944       1    1005    6556    6481    6480
CTETRA     19945       1    3568    4001    3469    2097
CTETRA     19946       1    1053    6174    6099    6098
CTETRA     19947       1    1039    6246    6322    6247
CTETRA     19948       1     950    2894    2091    2895
CTETRA     19949       1    3646    3647    3381    2468
CTETRA     19950       1    3568    2760    4042    4212
CTETRA     19951       1    1548    6307    6232    6231
CTETRA     19952       1    2909    2910    3233    5131
CTETRA     19953       1    4158    6250    6325    6326
CTETRA     19954       1     950    6872    6776    6873
CTETRA     19955       1    1064    6248    6172    6247
CTETRA     19956       1    3023    3648    3024    2869
CTETRA     19957       1     352    3142     353     354
CTETRA     19958       1    1497    6252    6253    6177
CTETRA     19959       1    3434     486    3646    3381
CTETRA     19960       1     191    3646    2816    3647
CTETRA     19961       1    1614    1613    3469    2343
CTETRA     19962       1    2716    6260    6185    6184
CTETRA     19963       1    3141     352    6699    6698
CTETRA     19964       1     336    6185    6260    6261
CTETRA     19965       1    2469    2613    5041    7033
CTETRA     19966       1    3024    2469    2869    3648
CTETRA     19967       1    3950    4924    4984    3754
CTETRA     19968       1     131    2382    2837    7030
CTETRA     19969       1     131    4145    2120    2121
CTETRA     19970       1    1282    6342    6267    6266
CTETRA     19971       1    2455    6266    6191    6190
CTETRA     19972       1     353     354    5074    5080
CTETRA     19973       1    4145    2908    4186    3955
CTETRA     19974       1    2130    2971    5298    5288
CTETRA     19975       1    3955    4145    2382    2837
CTETRA     19976       1    3434    3381    3646    2910
CTETRA     19977       1     353    3759    4903    5074
CTETRA     19978       1    3153    6148    6073    6072
CTETRA     19979       1    7029    2686    5130    2837
CTETRA     19980       1    1999    1179    1180    1516
CTETRA     19981       1    3411    2118     593    1894
CTETRA     19982       1    3646    2642    2639    2908
CTETRA     19983       1     171    2419    3774    1637
CTETRA     19984       1    2574    6148    6224    6149
CTETRA     19985       1    2029    3142     353    2181
CTETRA     19986       1    3005    6369    6370    6294
CTETRA     19987       1     353    2270    4903    3759
CTETRA     19988       1    3475    3267    2343    4042
CTETRA     19989       1     131    4145    2382    2120
CTETRA     19990       1     566    1130    2031    2024
CTETRA     19991       1    3745    6250    6251    6175
CTETRA     19992       1     722    6540    6541    6465
CTETRA     19993       1    4158    6326    6251    6250
CTETRA     19994       1     633    2012    1071    1558
CTETRA     19995       1    3978    3991    5471    3217
CTETRA     19996       1    2044    3899    2043     940
CTETRA     19997       1    3567    3937    3640    3377
CTETRA     19998       1     335    6263    6187    6262
CTETRA     19999       1    3313    3202    5545    5544
CTETRA     20000       1    3002    3565     992    1005
CTETRA     20001       1    3603    4992    4991    5031
CTETRA     20002       1    2308    4990    5025    4991
CTETRA     20003       1    3565    3640    3937    3639
CTETRA     20004       1    4129    2936    4094    3664
CTETRA     20005       1    3619    4987    2369    4988
CTETRA     20006       1    6412    6337     341    6336
CTETRA     20007       1     989    6490    6415    6414
CTETRA     20008       1    2160    6415    6340    6339
CTETRA     20009       1    2740    1870    1868    3666
CTETRA     20010       1    2936    3132    2788    4094
CTETRA     20011       1    2936    3132    1716    2788
CTETRA     20012       1    2429    2740    2936    4129
CTETRA     20013       1    3313    5544    3090    3202
CTETRA     20014       1    3168    6164    6088    6163
CTETRA     20015       1    3313    3202    5470    5545
CTETRA     20016       1    2989    3771    3985    3084
CTETRA     20017       1    1478    5242    5241    5212
CTETRA     20018       1    3312    3090    3313    3314
CTETRA     20019       1    2830    3267    3475    4202
CTETRA     20020       1     765    6239    6164    6163
CTETRA     20021       1    1633    6365    6440    6921
CTETRA     20022       1    2989    3774    3775    3254
CTETRA     20023       1    3590    2987    2989    3507
CTETRA     20024       1    2988    1637    3774    1638
CTETRA     20025       1    2989    3771    3084    2987
CTETRA     20026       1    2535    2987    3876    3710
CTETRA     20027       1    2665    3068    3771    2990
CTETRA     20028       1    3178    1825    3173    1826
CTETRA     20029       1    4014    6228    6229    6153
CTETRA     20030       1    1862    1869    1884    1867
CTETRA     20031       1    2223    6226    2279    6301
CTETRA     20032       1    2573    6152    6077    6076
CTETRA     20033       1    4014    6228    6153    6152
CTETRA     20034       1    3104    6073    6148    6149
CTETRA     20035       1    1403    3178    3183    4018
CTETRA     20036       1    3474    2094    2096    3469
CTETRA     20037       1    3178     846    1646    2733
CTETRA     20038       1     489    1402    1520    1871
CTETRA     20039       1     950    2240    6778    5019
CTETRA     20040       1    2096    3568     783    2759
CTETRA     20041       1    1608    3757    2612    5032
CTETRA     20042       1    1454    6255    6179    6254
CTETRA     20043       1    1520    3178    1812    3183
CTETRA     20044       1    2135    2330    2331    4138
CTETRA     20045       1    3617    1002    2688    3614
CTETRA     20046       1    2135    1881    1882    2331
CTETRA     20047       1    4158    6401    6326    6325
CTETRA     20048       1    6557    1005    6481    6482
CTETRA     20049       1    4045    6255    3117    6331
CTETRA     20050       1    3920    6407    6332    6331
CTETRA     20051       1    3920    6331    6332    6256
CTETRA     20052       1    4174    4142    4190    4178
CTETRA     20053       1    3521    4174    2858    4178
CTETRA     20054       1    2135    2136    2137    4190
CTETRA     20055       1    4174    2667    2669    4143
CTETRA     20056       1    6167    6168    3442    6092
CTETRA     20057       1    3442    6167    6091    6166
CTETRA     20058       1    3851    4087    2364    3940
CTETRA     20059       1    6319     857    6244    6320
CTETRA     20060       1     392    5104    5105    5103
CTETRA     20061       1    3442    6243    6168    6167
CTETRA     20062       1    4174    2135    4178    4190
CTETRA     20063       1    3926    2276    3498    3652
CTETRA     20064       1    3498    1161    2387     742
CTETRA     20065       1    2236    2238    4432    2150
CTETRA     20066       1    1053    6173    6098    6097
CTETRA     20067       1    4191    1039    3076    3099
CTETRA     20068       1    3288    3204    4328    4342
CTETRA     20069       1    1161    2272    3638    1162
CTETRA     20070       1    4062    6170    6246    6171
CTETRA     20071       1    1161    1139    1162     742
CTETRA     20072       1    6325    6324    4158    6400
CTETRA     20073       1    1829    1825    3328     718
CTETRA     20074       1    3288    4342    3206    3204
CTETRA     20075       1    6243    1033    6168    6244
CTETRA     20076       1     857    6319    6244    6243
CTETRA     20077       1     216    6471    6472    6396
CTETRA     20078       1    3426    6471    6395    6470
CTETRA     20079       1     425     633     868     560
CTETRA     20080       1    1378    1379    1377    3328
CTETRA     20081       1     314     176     177     816
CTETRA     20082       1    3166    6241    6165    6240
CTETRA     20083       1    3442    6242    6243    6167
CTETRA     20084       1    3031    4213    2589     811
CTETRA     20085       1    3660    2048    4185    2517
CTETRA     20086       1     354    5076    3759    5074
CTETRA     20087       1     740    6316    6241    6240
CTETRA     20088       1    4048    2926    2893    2927
CTETRA     20089       1     935    6545    3426    6469
CTETRA     20090       1    3487    3615     335     340
CTETRA     20091       1    3506    3511    3472    3513
CTETRA     20092       1     719    6312    6313    6237
CTETRA     20093       1    3120    3700     889    4135
CTETRA     20094       1    2309    4157    2759    3750
CTETRA     20095       1    1650    1364    2795    3120
CTETRA     20096       1    1099    5243    5248    5244
CTETRA     20097       1    2277     606    2846     920
CTETRA     20098       1    2272    2846     935     374
CTETRA     20099       1    3677    6155    6079    6154
CTETRA     20100       1    3545    3955    3411    2789
CTETRA     20101       1    4011    6231    6156    6155
CTETRA     20102       1    1799    1829    1885    3071
CTETRA     20103       1    2995    3544    1280    3956
CTETRA     20104       1    1787    3038    1773    2453
CTETRA     20105       1    1976    1973    2674    3645
CTETRA     20106       1    2588    6220    6145    6144
CTETRA     20107       1    2005    6220    6221    6145
CTETRA     20108       1    1161    1162    3638     723
CTETRA     20109       1    2273    2274    1139    3501
CTETRA     20110       1    1261    3120    3296    3700
CTETRA     20111       1    2485    1091    3970    1805
CTETRA     20112       1    3714    3428    5190    3655
CTETRA     20113       1    2130    5272    5289    5273
CTETRA     20114       1    1606    6367    6442    6443
CTETRA     20115       1    2485    1091    3340    3970
CTETRA     20116       1    2587    6144    2588    6145
CTETRA     20117       1     956    1803    1805    1806
CTETRA     20118       1    1823    1806    3340    3106
CTETRA     20119       1    3717    6366    6291    6922
CTETRA     20120       1     469    1070    1375    1074
CTETRA     20121       1     800    6158    6083    6082
CTETRA     20122       1    2630    1742    1720    3146
CTETRA     20123       1    2629    2627    2630    2634
CTETRA     20124       1    1709    2675    1710    3885
CTETRA     20125       1    2817    4910    2313    4911
CTETRA     20126       1    4011    6306    6231    6230
CTETRA     20127       1     799    6158    1178    6233
CTETRA     20128       1     812    5095    5045    5094
CTETRA     20129       1    2099    3389     622     303
CTETRA     20130       1    2789    2073    2995    3544
CTETRA     20131       1     340    6263    6339    6264
CTETRA     20132       1    1445    6638    6639    6563
CTETRA     20133       1     665    3588    2308    2878
CTETRA     20134       1    4057    6339    6340    6264
CTETRA     20135       1    2100    3400      94    1228
CTETRA     20136       1    2099    2100    3389    2647
CTETRA     20137       1    2099    2647     918    2101
CTETRA     20138       1    2099    2647    3389    1609
CTETRA     20139       1    3694    3842    3687    3890
CTETRA     20140       1    6786    6863    4983    4981
CTETRA     20141       1    3715    2504    2201    4372
CTETRA     20142       1    2006    2473    5928    5929
CTETRA     20143       1     701    5945    3895    6020
CTETRA     20144       1    2018    2063    3789    3904
CTETRA     20145       1      38    2995    3544    1280
CTETRA     20146       1    2733    6236    6161    6160
CTETRA     20147       1    3904    3715    3861    4373
CTETRA     20148       1    4140    4150    5498    3808
CTETRA     20149       1    4140    5575    4175    3462
CTETRA     20150       1    4140    3808    5498    5499
CTETRA     20151       1     700    6096     701    6095
CTETRA     20152       1    3122    3116    3117    1455
CTETRA     20153       1    4140    1878    4150    3494
CTETRA     20154       1    5574    4175    3938    4140
CTETRA     20155       1     253    2471     256    2297
CTETRA     20156       1     765    6239    6315    6240
CTETRA     20157       1    3148    2899    2931     217
CTETRA     20158       1    4197    6310    6235    6234
CTETRA     20159       1    6384    3504    4148    6309
CTETRA     20160       1    2872    2931    3101    3099
CTETRA     20161       1    1041    2247    2931    2670
CTETRA     20162       1    2961    4188    2084    2428
CTETRA     20163       1    1522    4155    1523    1524
CTETRA     20164       1    4155    3302    3849    2108
CTETRA     20165       1    1283    6416    6417    6341
CTETRA     20166       1    4155    1524    3302    1523
CTETRA     20167       1    3502    3513    4116    3510
CTETRA     20168       1    3502    3505    3509    3503
CTETRA     20169       1    3417    6217    6142    6141
CTETRA     20170       1    4021    6217    6218    6142
CTETRA     20171       1    3013    6293    6218    6217
CTETRA     20172       1    2256    5176    3839    5168
CTETRA     20173       1    3502    3509    3505    3327
CTETRA     20174       1    3502    2228    3513    1826
CTETRA     20175       1    4044    2897    3655    3486
CTETRA     20176       1    3013    6292    6293    6217
CTETRA     20177       1    2400    5154    5210    5211
CTETRA     20178       1    2228    6387    6312    6311
CTETRA     20179       1    3502    4207    1826    3505
CTETRA     20180       1    3502    3509    3328    3513
CTETRA     20181       1    2311    1616    2310    2705
CTETRA     20182       1    3515    3012    3212    3011
CTETRA     20183       1    2162    5242    5240    5239
CTETRA     20184       1    1314    2790    2511    1174
CTETRA     20185       1    3672    3823    3677     809
CTETRA     20186       1    2717    2768    2325    2316
CTETRA     20187       1    4014    6227    6228    6152
CTETRA     20188       1    2603    2602    4025    3747
CTETRA     20189       1    4054    2553     325    2814
CTETRA     20190       1    4191     216    6398    6397
CTETRA     20191       1    1118    1241    4133    1119
CTETRA     20192       1    1761    1757    4133    1186
CTETRA     20193       1    2270     950    2894    2091
CTETRA     20194       1    6777    6871    6872    5019
CTETRA     20195       1     330    6333    6334    6258
CTETRA     20196       1     477    4924    3950    3754
CTETRA     20197       1    4133    1186    4054    2814
CTETRA     20198       1    3701    6110     336    2819
CTETRA     20199       1    4059    5021    5022    5020
CTETRA     20200       1    3558    3598     336    2716
CTETRA     20201       1    3053    2719    2370    3603
CTETRA     20202       1    1499    1466    2600    2597
CTETRA     20203       1    1470    1468    2375    1467
CTETRA     20204       1    1387    1251    1252    1250
CTETRA     20205       1    2239    2240    6779    2302
CTETRA     20206       1    1288    2819    3701     336
CTETRA     20207       1    4090    1467    1469    6109
CTETRA     20208       1    2240    5019     950    2894
CTETRA     20209       1    3706    4909    2817    5039
CTETRA     20210       1    1064    6248    6173    6172
CTETRA     20211       1    3741    2313     437    4134
CTETRA     20212       1    1064    6173    6249    6174
CTETRA     20213       1    1467    1469    6109    3701
CTETRA     20214       1    1288    1469    3701    2819
CTETRA     20215       1    2610    6223    6148    6147
CTETRA     20216       1    2597    1499    1295    2598
CTETRA     20217       1    2574    6298    6299    6223
CTETRA     20218       1    2597    2598    1295    1289
CTETRA     20219       1    2618    2650    1227    1831
CTETRA     20220       1    1497    6327    6328    6252
CTETRA     20221       1    6628    2895    6627    3377
CTETRA     20222       1    3172    6251    6252    6176
CTETRA     20223       1    2341    2342    2902     404
CTETRA     20224       1    2645    3389    2100    2647
CTETRA     20225       1    3145    6480    6404    6479
CTETRA     20226       1    4124     476    3668     242
CTETRA     20227       1    1359    2898    2782    2779
CTETRA     20228       1    3116    6328    6329    6253
CTETRA     20229       1    2895    2302    3377    6703
CTETRA     20230       1    3701    1467    6184    6109
CTETRA     20231       1    1425    2444    1422    2442
CTETRA     20232       1    1312     575     568    1160
CTETRA     20233       1    1655    6372    6371    6447
CTETRA     20234       1    2528    2529    2533    2532
CTETRA     20235       1    2704    1293    2692    1291
CTETRA     20236       1    1948    2455    1940    3059
CTETRA     20237       1    1948    3478    2143    2244
CTETRA     20238       1    2716    6335    6260    6259
CTETRA     20239       1     314     816     177    2732
CTETRA     20240       1     191     189     437    2816
CTETRA     20241       1    1948    3478    1945    2143
CTETRA     20242       1    1936    3478    1948    1938
CTETRA     20243       1    1948    1945    1949    1940
CTETRA     20244       1    2733    6234    6235    6159
CTETRA     20245       1    2895    6627    3377    1372
CTETRA     20246       1    2302    2240    6778    2895
CTETRA     20247       1    2895    6627    1372    6702
CTETRA     20248       1     189    2817    3706    3525
CTETRA     20249       1    2885     586    2168    4073
CTETRA     20250       1    4197    6309    6234    6233
CTETRA     20251       1    2157     175    3602     301
CTETRA     20252       1    1178    6232    6156    6231
CTETRA     20253       1     607     792     640     642
CTETRA     20254       1     301    2555    2156     638
CTETRA     20255       1     799    6233    6234    6158
CTETRA     20256       1    2986    5175    3599    4002
CTETRA     20257       1     607     792    1505    2185
CTETRA     20258       1     640     817    2185     608
CTETRA     20259       1    3209    3369    2183    3365
CTETRA     20260       1    4062    6245    6246    6170
CTETRA     20261       1    3490     586    2551     818
CTETRA     20262       1    2868     640     817    2185
CTETRA     20263       1    2849     608    2731    2729
CTETRA     20264       1    1845    3209    3689    2975
CTETRA     20265       1    3741    3355    3375    5133
CTETRA     20266       1    1039    6323    6248    6247
CTETRA     20267       1    2986    2281    3599    6843
CTETRA     20268       1    3284    5094    5044    5093
CTETRA     20269       1    1038    6246    6247    6171
CTETRA     20270       1    3656    3868    2763    3332
CTETRA     20271       1    3490    4200    3156     818
CTETRA     20272       1    2975    3975    3370    3689
CTETRA     20273       1     106    4108    3975    4067
CTETRA     20274       1    3975    3370    4065    2975
CTETRA     20275       1     857    6318    6319    6243
CTETRA     20276       1    3975    3370    3689    4108
CTETRA     20277       1    3615     340    6264    6263
CTETRA     20278       1    1282    6340    2160    6341
CTETRA     20279       1    3975    2974    4065    4064
CTETRA     20280       1    4992    4993    3603    2370
CTETRA     20281       1    1283    6417    6342    6341
CTETRA     20282       1     133    6717    6718    6642
CTETRA     20283       1    1282    6341    6266    6265
CTETRA     20284       1     601     837     872     602
CTETRA     20285       1    1638    1635    1637    3027
CTETRA     20286       1     645    6492    6417    6416
CTETRA     20287       1    1618     281    1422    1942
CTETRA     20288       1    6263     335     340    6262
CTETRA     20289       1    7035     129    2536    2119
CTETRA     20290       1    1995    5356    5368    5369
CTETRA     20291       1     340    6339    6263    6338
CTETRA     20292       1    1617    2779    1780    1918
CTETRA     20293       1    2612    1608    3960    3757
CTETRA     20294       1     684    1641    2778    2787
CTETRA     20295       1     684    3281    2778    1777
CTETRA     20296       1       8    6788    6712    6787
CTETRA     20297       1     692    3482    1769    3247
CTETRA     20298       1     691    2787     412    3496
CTETRA     20299       1    2342    4081    3947    4076
CTETRA     20300       1    1169    1749    1696    1691
CTETRA     20301       1    2342    2343    2831    3266
CTETRA     20302       1    2986    2281    6843    5169
CTETRA     20303       1    1064    6249    6173    6248
CTETRA     20304       1    3745    6325    6250    6249
CTETRA     20305       1    3618    4042    2085    4202
CTETRA     20306       1     843    1227    1601    2649
CTETRA     20307       1     933    6399    6475    6400
CTETRA     20308       1    4112    4149    5957    2364
CTETRA     20309       1     682    1750    2603    2317
CTETRA     20310       1    1242    2812     325    2927
CTETRA     20311       1    1614    1615    3475    2760
CTETRA     20312       1    2830    3943    2831    3266
CTETRA     20313       1    2830    2602    3943    4202
CTETRA     20314       1    2655    6150    6226    6151
CTETRA     20315       1    2343    3469    4001    2305
CTETRA     20316       1    1613    2343    2305    3469
CTETRA     20317       1    2986    3846    5178    5175
CTETRA     20318       1    1487    6377    6302    6301
CTETRA     20319       1    2341    3390     649     404
CTETRA     20320       1    4058    3889    5953    3940
CTETRA     20321       1     368    5122    3875    3354
CTETRA     20322       1    2343    4001    3469    4042
CTETRA     20323       1    3475    2343    3469    4042
CTETRA     20324       1    3005    6368    6444    6369
CTETRA     20325       1    6520    6521    3916    1684
CTETRA     20326       1    1252    3865    1626    3998
CTETRA     20327       1    4118    2333    3865    3597
CTETRA     20328       1    1308     702    1305    2499
CTETRA     20329       1    1647    1642    2333    3594
CTETRA     20330       1     703    3124    3125    2499
CTETRA     20331       1    1245    3092    1335    1223
CTETRA     20332       1     934    2114    2508    2567
CTETRA     20333       1    3840    3449    3866    4059
CTETRA     20334       1    2520    3158    2567    2114
CTETRA     20335       1     127    5108    5104    5107
CTETRA     20336       1    2528    2509    2529    2532
CTETRA     20337       1    1508    1360    1362    1347
CTETRA     20338       1    1541    1508    1347    1349
CTETRA     20339       1    6227    1488    2250    6302
CTETRA     20340       1    4014    3105    2250    1488
CTETRA     20341       1    1508    1349    1541     187
CTETRA     20342       1    1508    1360    1517    1509
CTETRA     20343       1    2986    3874    5170    1990
CTETRA     20344       1    1615    2760    1921    2601
CTETRA     20345       1    2655    6225    2279    6226
CTETRA     20346       1    1508    1360    1510    1362
CTETRA     20347       1    1549    6381    6305    6380
CTETRA     20348       1    1508    1529    1530    1509
CTETRA     20349       1    1508    1510    1360    1509
CTETRA     20350       1    1508     187    1530    1349
CTETRA     20351       1    3893      57    1530    1523
CTETRA     20352       1     186    3074     185    3893
CTETRA     20353       1    2588    6295    6220    6219
CTETRA     20354       1    2942     417     418    5207
CTETRA     20355       1    2293    6070    2587    6145
CTETRA     20356       1    3096    1991    3654    3428
CTETRA     20357       1    6001    2199    2152    2151
CTETRA     20358       1    2177    5591      57    3893
CTETRA     20359       1    1508    1509    1530     187
CTETRA     20360       1    1530    1519    1523      57
CTETRA     20361       1    3628    3484    3632    4086
CTETRA     20362       1     949    5001    5006    5000
CTETRA     20363       1    3117    6404    6405    6329
CTETRA     20364       1    2986    5178    3846    5170
CTETRA     20365       1    6255    1454    3117    6254
CTETRA     20366       1     331    6410    6335    6334
CTETRA     20367       1    2628    2746    2727    2735
CTETRA     20368       1    2626    2746    2628    3564
CTETRA     20369       1    3640    6555    6479    6554
CTETRA     20370       1    1217     390    1869    1884
CTETRA     20371       1    2167    2626    2628    3564
CTETRA     20372       1    2936    2628    1716    2753
CTETRA     20373       1    3117    6406    6331    6330
CTETRA     20374       1    2518    3333    2167    3563
CTETRA     20375       1    2167    2628    2161    3564
CTETRA     20376       1     742    6617    6616    6692
CTETRA     20377       1    2088    6396    6321    6320
CTETRA     20378       1    1144    2388    3297    2792
CTETRA     20379       1    4011    6230    6231    6155
CTETRA     20380       1    4012    6229    6230    6154
CTETRA     20381       1    1151    3855    1153    1155
CTETRA     20382       1    3384    2292    3100    6746
CTETRA     20383       1    1150    3387    3886    3720
CTETRA     20384       1    2984    3732    2955    3653
CTETRA     20385       1    1666    2556    3094    2569
CTETRA     20386       1    3932     752    3186    3367
CTETRA     20387       1    1058    6620    6621    6545
CTETRA     20388       1    1815    2967    2962    2965
CTETRA     20389       1    1578    6335    6411    6336
CTETRA     20390       1    1562    3467    4938    4937
CTETRA     20391       1    2823    2955    2984    3732
CTETRA     20392       1    3455    2187    3628    3632
CTETRA     20393       1    2312    7036    4795    4796
CTETRA     20394       1    2282    3505    3509    3327
CTETRA     20395       1    3533    1088     629     630
CTETRA     20396       1    3186    2736    3193    3110
CTETRA     20397       1    5382    2537    5381    5369
CTETRA     20398       1    3533    3510    3509    3503
CTETRA     20399       1    1718    3036    1323    3294
CTETRA     20400       1    3533    3508    3510     630
CTETRA     20401       1    3508    4022    3511    3510
CTETRA     20402       1    1997    1782    1996    2301
CTETRA     20403       1    1377    3508    3511    3509
CTETRA     20404       1    1117    3995     878    3465
CTETRA     20405       1    1117    1118    1757    1119
CTETRA     20406       1    3932    2542    2543    2104
CTETRA     20407       1    2618    2654    3461    2415
CTETRA     20408       1    2415    1119    3466    3427
CTETRA     20409       1    2537    4873    5379    4872
CTETRA     20410       1    1728    1729    5325    5324
CTETRA     20411       1    2594    4779    4786    6950
CTETRA     20412       1    2537    6915    5390    4872
CTETRA     20413       1     792    6946    6947    4291
CTETRA     20414       1    1804    5700    2058    5775
CTETRA     20415       1    1240    1242    2724    1241
CTETRA     20416       1     400     403     402    2706
CTETRA     20417       1    1087     635    1729    5350
CTETRA     20418       1    3165    7070    5194    7040
CTETRA     20419       1    3703    2557    2554    4415
CTETRA     20420       1    2555    6944    4415    4316
CTETRA     20421       1    1097    1241    2814    4133
CTETRA     20422       1    2879    5924    5849    5848
CTETRA     20423       1    2611    6297    6221    6296
CTETRA     20424       1     795    1686    4303    4603
CTETRA     20425       1    4524     752    3194    2211
CTETRA     20426       1    3455    2207    3635     370
CTETRA     20427       1    2213    5314    5315    6949
CTETRA     20428       1    1728    1729    5327    5326
CTETRA     20429       1    2158    2260    2407    7067
CTETRA     20430       1    2536    4793    4794    7034
CTETRA     20431       1     724     723    1976    1977
CTETRA     20432       1    1491    4834    2615    4846
CTETRA     20433       1    3470    2360    3471    3512
CTETRA     20434       1    1552     635    5363    5364
CTETRA     20435       1    3506    3511    3512    3472
CTETRA     20436       1    1552    5361    1059    5373
CTETRA     20437       1    2739    5921    5997    5922
CTETRA     20438       1    3498    3926     811    2360
CTETRA     20439       1    2213    6948    5313    5314
CTETRA     20440       1    3926     811    3031    2589
CTETRA     20441       1    3470    3471    2360    2387
CTETRA     20442       1    3616    4169    2865    2815
CTETRA     20443       1    3616    1068     701    2286
CTETRA     20444       1    1007    1863    3617    3614
CTETRA     20445       1    1728    5312    5325    5313
CTETRA     20446       1    1007    3614    3452    1893
CTETRA     20447       1    2687    4833    4834    4821
CTETRA     20448       1     752    4531    2211    4524
CTETRA     20449       1    2542     752    3194    4534
CTETRA     20450       1    1728    5324    2563    1729
CTETRA     20451       1    1007    1004    3617    1052
CTETRA     20452       1     472    3602     473    2396
CTETRA     20453       1     473    2156    2406     474
CTETRA     20454       1    2260    6942    2261    2407
CTETRA     20455       1     640    6945     639    6946
CTETRA     20456       1     636    1857    5343    6912
CTETRA     20457       1     175    3602    2134    2396
CTETRA     20458       1    3603    4992    5034    4993
CTETRA     20459       1    1181    1193    1188    1192
CTETRA     20460       1    1194    3964    2659    1723
CTETRA     20461       1    2395    3128    3018    2457
CTETRA     20462       1    2213    5315    6950    6949
CTETRA     20463       1     592     472    3264    3303
CTETRA     20464       1      66     379     380    1318
CTETRA     20465       1    2770    3561    3761    3559
CTETRA     20466       1    2422    5316    5328    5329
CTETRA     20467       1    2113    4543    4538    4541
CTETRA     20468       1    2134    1675    1677    1793
CTETRA     20469       1    1618    1420    1421    1422
CTETRA     20470       1     699    6094    2285    6093
CTETRA     20471       1    1995    6913     634    6914
CTETRA     20472       1    3072    1641    1633    1778
CTETRA     20473       1    1995    5367    5380    5368
CTETRA     20474       1    2408    4848    6940    4860
CTETRA     20475       1    1960    3211    3210    1687
CTETRA     20476       1    2408    4879    4878    4877
CTETRA     20477       1     162    4863    4850    4862
CTETRA     20478       1    4084    6950    4786    6949
CTETRA     20479       1    2212    2460    5307    2260
CTETRA     20480       1    2460    5330    5317    2422
CTETRA     20481       1    3381    7031    4912    5139
CTETRA     20482       1    2745    2622    5656    5731
CTETRA     20483       1    6944    5309    2212    5310
CTETRA     20484       1    2213     642     639    5312
CTETRA     20485       1    5968    3794    2246    5967
CTETRA     20486       1    3628    3456    4086    3336
CTETRA     20487       1    3932     752    2211    3194
CTETRA     20488       1    4604    4572    2428    2084
CTETRA     20489       1    1906    6058    6134    6059
CTETRA     20490       1    3626    6125    6050    6049
CTETRA     20491       1    3186    4531     752    4536
CTETRA     20492       1    2307    4987    2308    3950
CTETRA     20493       1    5429     752    4534    4536
CTETRA     20494       1    4909    2392    3525    2817
CTETRA     20495       1    4089    6127    3768    6052
CTETRA     20496       1    2554    4316    2505    2406
CTETRA     20497       1    2555    4316    2261    6944
CTETRA     20498       1    2025    1509    3893    3050
CTETRA     20499       1    3893    1523     186    2108
CTETRA     20500       1     642    6948    2213    6949
CTETRA     20501       1    4095    2474    3788    2475
CTETRA     20502       1    4083    6044    6043    6119
CTETRA     20503       1    3559    2770    3560    3336
CTETRA     20504       1    3368    4664     185    4659
CTETRA     20505       1    2505    4315    2406    4316
CTETRA     20506       1    3074    4651    1116     188
CTETRA     20507       1    2261    6943    2406    6942
CTETRA     20508       1    1686    4599    4597    4596
CTETRA     20509       1    5702    1173    5703    1172
CTETRA     20510       1    3381    3233    5139    2313
CTETRA     20511       1    3182    3169    3821    3192
CTETRA     20512       1    1002    3614    4165    2688
CTETRA     20513       1    3703     817     819    2868
CTETRA     20514       1    2118    3208     419    3032
CTETRA     20515       1     486    4912    3381    7031
CTETRA     20516       1    3440    3441    3453    3442
CTETRA     20517       1    5132    3233    5131    2248
CTETRA     20518       1    5969    3787    3785     791
CTETRA     20519       1     486    4913    2468    4912
CTETRA     20520       1    3074     188    4660    4651
CTETRA     20521       1    2118     593     419    3485
CTETRA     20522       1    3434    2910    2382    3381
CTETRA     20523       1     719    6313    6314    6238
CTETRA     20524       1    2817    4911    2313    2738
CTETRA     20525       1    7033    4913    5040    2469
CTETRA     20526       1    3828    4541    4060    2829
CTETRA     20527       1    2261    2407    6942    2406
CTETRA     20528       1    2119    3024    2613    2059
CTETRA     20529       1    1711    1545    1559    3930
CTETRA     20530       1    2554    2555    4316    2261
CTETRA     20531       1    3499    4420    3593    2551
CTETRA     20532       1    2260    6944     639     638
CTETRA     20533       1    2260    2407    7067    6942
CTETRA     20534       1     607    1505     792    1506
CTETRA     20535       1    2261    2406    6943    4316
CTETRA     20536       1     642    4084    1506    6949
CTETRA     20537       1    3787     791    5894    3342
CTETRA     20538       1    1094    1095    1901    1246
CTETRA     20539       1    3165    2686    5194    7070
CTETRA     20540       1    2777    6363     208    6439
CTETRA     20541       1    4011    1548    3676    1178
CTETRA     20542       1    2837    3165    7070    2686
CTETRA     20543       1    2686    2837    7029    7070
CTETRA     20544       1    2704    3165    2686    5194
CTETRA     20545       1    1487    6376    6301    6300
CTETRA     20546       1    4015    6361    6436    6437
CTETRA     20547       1    3352    3074    4663    1116
CTETRA     20548       1    3125    3839    3854    3813
CTETRA     20549       1    3486    2470    5205    5208
CTETRA     20550       1     607    2185     640     792
CTETRA     20551       1    2897    1293    3655    5192
CTETRA     20552       1    1670    5856    5932    5857
CTETRA     20553       1    3670    5855    5931    5856
CTETRA     20554       1    3085    5852    5777    5776
CTETRA     20555       1     186    1116    3352    2108
CTETRA     20556       1    2866    2185     831    4418
CTETRA     20557       1    3949    5930    5855    5854
CTETRA     20558       1    3263    4685    2540    2393
CTETRA     20559       1     186    3352    1116    3074
CTETRA     20560       1    4176    5853    5778    5777
CTETRA     20561       1    3220    3845    5859    2566
CTETRA     20562       1    3074     185    4664    4660
CTETRA     20563       1    6138    1767    1769    6139
CTETRA     20564       1    4102    3787    3139    4082
CTETRA     20565       1    5776    3243    3085    5775
CTETRA     20566       1    2866    2185    4418    4412
CTETRA     20567       1    4134    2313    4910    5138
CTETRA     20568       1    2869    2719    2613    2059
CTETRA     20569       1    6337     340     339    6262
CTETRA     20570       1    3368    4664    5442    4663
CTETRA     20571       1    5205    2897    7040    2470
CTETRA     20572       1    2730     177     817    2732
CTETRA     20573       1    3434     486    2382    2120
CTETRA     20574       1    3873    6515    6590    6919
CTETRA     20575       1     131     128    7031    7030
CTETRA     20576       1    4020    3578    6281    6356
CTETRA     20577       1    2804    6285    6360    6361
CTETRA     20578       1     404    5759    5835    5760
CTETRA     20579       1    1506    1504    4688    4687
CTETRA     20580       1    2346    6813    4232    2345
CTETRA     20581       1    2346    6839    4232    6840
CTETRA     20582       1    4084    2538    4786    2594
CTETRA     20583       1    3915    5914    5913    5989
CTETRA     20584       1    3626    4052    3627    6125
CTETRA     20585       1    3674    2683     794    4084
CTETRA     20586       1     640     638    6945    2555
CTETRA     20587       1     402     403    4776    2708
CTETRA     20588       1    2989    3771    3774    3985
CTETRA     20589       1    2468    2467    2738    5037
CTETRA     20590       1    3434    2382    4145    2120
CTETRA     20591       1    3787    3784     791    3342
CTETRA     20592       1    1562     476     478    4933
CTETRA     20593       1    2882    3787    3785    4102
CTETRA     20594       1    3223    5075    5072    5076
CTETRA     20595       1    3064    6335    6336    6260
CTETRA     20596       1    2469     486    2613    7033
CTETRA     20597       1    6246    1038    6321    6245
CTETRA     20598       1     803    1566     806     802
CTETRA     20599       1    3703    2557    4415     819
CTETRA     20600       1    6841    2346    2347    3872
CTETRA     20601       1    3787    5894     791    5969
CTETRA     20602       1    3489    2315    2314    5209
CTETRA     20603       1    2991    2346    4234    2280
CTETRA     20604       1    1261    3004    3296    3153
CTETRA     20605       1    2897    5193    7040    3165
CTETRA     20606       1    1661    6448    6372    6447
CTETRA     20607       1    1946    3805    3481    3482
CTETRA     20608       1    2655    1488    6227    6226
CTETRA     20609       1    2346    4234    3872    6841
CTETRA     20610       1    1765    2692    2686    5196
CTETRA     20611       1    5193    1293    2692    2704
CTETRA     20612       1    1477    5238    5242    5239
CTETRA     20613       1    2121     131    4145    3485
CTETRA     20614       1    5193    2704    3165    2897
CTETRA     20615       1    4043    6928    5916    5841
CTETRA     20616       1    1504    4688    1908     792
CTETRA     20617       1    2199    5999    3004    6074
CTETRA     20618       1    4070    2797    3872    4080
CTETRA     20619       1    5969    3787    3139    4102
CTETRA     20620       1    3408    1919    1769    6139
CTETRA     20621       1    1506    2538    1504    4666
CTETRA     20622       1    3912    4021    3683    3417
CTETRA     20623       1    3915    5914    5990    5915
CTETRA     20624       1    1908     831     792    4688
CTETRA     20625       1    2868     819    4415    4413
CTETRA     20626       1    2866    4419    2868    4412
CTETRA     20627       1    3827    2412    4410    4411
CTETRA     20628       1    4034    2879    5923    5922
CTETRA     20629       1    6154    1666    6079    3677
CTETRA     20630       1     230    3696    4044    3486
CTETRA     20631       1    3804    3428    3655    3833
CTETRA     20632       1    2897    1293    3833    3655
CTETRA     20633       1    3857    2692    1765    2459
CTETRA     20634       1    2868    2555    6945    4415
CTETRA     20635       1    2551    2867    4428    4419
CTETRA     20636       1    2250    4012    6303    6304
CTETRA     20637       1    4014    1666    2556    6154
CTETRA     20638       1    4096    3213    3355    2957
CTETRA     20639       1    2868    4412     640    2185
CTETRA     20640       1     640    2185    6946     792
CTETRA     20641       1    1623    2016    2874    2204
CTETRA     20642       1    3955    3678    3219    2909
CTETRA     20643       1    3785    5969    2246    4102
CTETRA     20644       1    3857    2692    2704    2686
CTETRA     20645       1    3678    2924    2248    3418
CTETRA     20646       1    3859    2314    2315    2459
CTETRA     20647       1    3219    2686    5130    1765
CTETRA     20648       1    3263    3262    2866    3089
CTETRA     20649       1    1765    2686    5130    4900
CTETRA     20650       1     712    6526    6451    6450
CTETRA     20651       1    2816    2467    3706    2817
CTETRA     20652       1    1608    2612    2870    5033
CTETRA     20653       1    3920    6406    6407    6331
CTETRA     20654       1     294    4963    4951    4961
CTETRA     20655       1    3045    6812    4240    4238
CTETRA     20656       1    2533    2529    2514    2512
CTETRA     20657       1    1760    5617    5693    5618
CTETRA     20658       1    2979    2978    2964    3140
CTETRA     20659       1    3532    2082    4773    3255
CTETRA     20660       1     547    1668    1198    1663
CTETRA     20661       1    1579    1779    2568    3008
CTETRA     20662       1     818     819     817    2868
CTETRA     20663       1    2982    3908     928    2280
CTETRA     20664       1    3044    6811    6735    6810
CTETRA     20665       1    4056    6348    6272    3021
CTETRA     20666       1    3025    3027    3053    3054
CTETRA     20667       1    2146    3392    5186    3280
CTETRA     20668       1    3054    2719    4888    4887
CTETRA     20669       1    1848    3589    4088    2805
CTETRA     20670       1    6265    6190    1282    4057
CTETRA     20671       1    3697     340     341    6413
CTETRA     20672       1    4970    3065    3062    2953
CTETRA     20673       1    2827    6196    2072    2861
CTETRA     20674       1    3774    3253    3775    3254
CTETRA     20675       1    1282    6190    6266    2455
CTETRA     20676       1    2550    3746    4079    6052
CTETRA     20677       1    3054    4888    2445    4887
CTETRA     20678       1    2445    2059    2446    7036
CTETRA     20679       1    1106    2642    1313    2640
CTETRA     20680       1    3253    5149     417    5142
CTETRA     20681       1    3041    2943    3054    2445
CTETRA     20682       1    2445    2059    7036    4888
CTETRA     20683       1     418     417    5208    5207
CTETRA     20684       1    3364     928    6734    2980
CTETRA     20685       1     405    5834    5910    5835
CTETRA     20686       1    5833    5832    5757    2303
CTETRA     20687       1    2680    2595    4787    2580
CTETRA     20688       1    1503    2702    2731    1504
CTETRA     20689       1    4084    1506    6949    2538
CTETRA     20690       1     704    3814    1990    3702
CTETRA     20691       1    3253    3254    5142    2190
CTETRA     20692       1    4028    6358    6433    6434
CTETRA     20693       1    4035    6359    6434    6435
CTETRA     20694       1    3345    3706    1440    3525
CTETRA     20695       1    3678    2385    3418    2248
CTETRA     20696       1    2382    2910    5131    5139
CTETRA     20697       1    2910    5139    3233    5131
CTETRA     20698       1    2978    3138    3290    3057
CTETRA     20699       1    2248    5131    5134    1765
CTETRA     20700       1    3233    5139    2313    5140
CTETRA     20701       1     942     947    2060     930
CTETRA     20702       1    2889    3375    2248    3233
CTETRA     20703       1    2382    3219    5130    5131
CTETRA     20704       1    7031    3381    2382    5139
CTETRA     20705       1    6661    3044    6736    6660
CTETRA     20706       1     739    6392    6317    6316
CTETRA     20707       1    3706    2467    3757    5036
CTETRA     20708       1    3381    2382    5139    2910
CTETRA     20709       1    2143    6118    2246    6117
CTETRA     20710       1    2418    3174    2942     418
CTETRA     20711       1    1605    6920    6441    6921
CTETRA     20712       1    3486    3655    3174    5208
CTETRA     20713       1    1608    2612    5033    5032
CTETRA     20714       1    3253    2445     417    5149
CTETRA     20715       1    3280     168    2944    2069
CTETRA     20716       1    2513    2512    3231    4056
CTETRA     20717       1     959     944    2359     931
CTETRA     20718       1     478     477    4924    4933
CTETRA     20719       1    5142    2190    5207     417
CTETRA     20720       1    3253    5149    2943    2445
CTETRA     20721       1    6206    6281    6205    3765
CTETRA     20722       1    1817    2317    2955    1256
CTETRA     20723       1     326    6929    5841    5766
CTETRA     20724       1    1504    4666    2540    4687
CTETRA     20725       1     400     401     299    2077
CTETRA     20726       1    6306    1548    6381    1549
CTETRA     20727       1    3957    2889    2909    2886
CTETRA     20728       1     711     740     766     765
CTETRA     20729       1     551    1961    1384    3758
CTETRA     20730       1    1291    3696    2897    3833
CTETRA     20731       1    4134    2817    4910    2313
CTETRA     20732       1    2922    5709    5634    5633
CTETRA     20733       1    2306    4921    4922    4944
CTETRA     20734       1    2469    2612    5040    5041
CTETRA     20735       1    2613    5035    2870    5041
CTETRA     20736       1    3585    2612    3960    2469
CTETRA     20737       1    1282    1283    6342    6341
CTETRA     20738       1    4063    2554    2048    2505
CTETRA     20739       1    2839    3225    2071    2243
CTETRA     20740       1    6186     336    6111    6187
CTETRA     20741       1     228    4950    4921    4944
CTETRA     20742       1    1577    6560    6636    6561
CTETRA     20743       1    3114    3145    6404    6403
CTETRA     20744       1    2719    2870    5035    5034
CTETRA     20745       1    2968    2966    3649    3070
CTETRA     20746       1    3185    5032    1608    1607
CTETRA     20747       1    6660    4008    6661    3044
CTETRA     20748       1    6498    2117    6574    2116
CTETRA     20749       1    3023    3046    3025    3026
CTETRA     20750       1    3225    2373    2374    2372
CTETRA     20751       1    2606    5793    5869    5794
CTETRA     20752       1    4164    3538    2606    5867
CTETRA     20753       1    4408    2829    4185    2517
CTETRA     20754       1    4156    5871    5796    5795
CTETRA     20755       1    2877    2889     574    3957
CTETRA     20756       1    3044    3364    6660    4008
CTETRA     20757       1    2517    4312    2035    4313
CTETRA     20758       1     471    3305    4588    4591
CTETRA     20759       1    3956    3545    3411    2995
CTETRA     20760       1    2036    2904    2505    4590
CTETRA     20761       1    4185    2048    4408    2517
CTETRA     20762       1    2638    1168    2388    1931
CTETRA     20763       1    4063    2048    2517    2036
CTETRA     20764       1    2411    4185    4409    2829
CTETRA     20765       1    2053    4470    4543    4471
CTETRA     20766       1    1390    1440    4994    3525
CTETRA     20767       1    4314    4590    4540    2036
CTETRA     20768       1    3857    2704    3956    2686
CTETRA     20769       1    4200    3593    3827    4185
CTETRA     20770       1    1649    3402     809    2524
CTETRA     20771       1    2459    2924    3859    2314
CTETRA     20772       1    3545    3678     574     573
CTETRA     20773       1    2874    4287    2016    4286
CTETRA     20774       1    2017    2016    2713    4683
CTETRA     20775       1    2314    2315    2459    5153
CTETRA     20776       1    2200    5849    4034    2879
CTETRA     20777       1    2016    4684    2713    4683
CTETRA     20778       1    1645    3327    3071    1646
CTETRA     20779       1    2540    4685    1908    4687
CTETRA     20780       1    1340     584    1341    3261
CTETRA     20781       1    1908    3089    4455    4289
CTETRA     20782       1    1504    4687    1908    4688
CTETRA     20783       1    3263    1908    2540    4685
CTETRA     20784       1    3675    3439    3852    3276
CTETRA     20785       1    1908    4290     831    4688
CTETRA     20786       1    2006    6004    2123    5929
CTETRA     20787       1    2892    2200    2879    2152
CTETRA     20788       1    2866    3089    4455     831
CTETRA     20789       1     831    2866    4418    4455
CTETRA     20790       1    2342    3947    2831    2902
CTETRA     20791       1    2782    1918    3945    2781
CTETRA     20792       1    2866    4418    2867    4419
CTETRA     20793       1    3263    1908    3089     831
CTETRA     20794       1    2204    2393    4287    4288
CTETRA     20795       1    4455    1908    4290     831
CTETRA     20796       1    4034    5849    5773    5848
CTETRA     20797       1     831    3089    4455    1908
CTETRA     20798       1    5761    5837    3905    5762
CTETRA     20799       1    6726    3029    3974    3993
CTETRA     20800       1    1543    1539    1537    2132
CTETRA     20801       1    2250    6227    6303    4014
CTETRA     20802       1    1765    2686    4900    5196
CTETRA     20803       1    5153    2459    2314    2924
CTETRA     20804       1    5153    5196    2459    2924
CTETRA     20805       1    3418    2154    5124    2385
CTETRA     20806       1    1765    2924    5134    2248
CTETRA     20807       1    2789     574    3545    3957
CTETRA     20808       1    4277    2107    4279    4275
CTETRA     20809       1    2400    2315    5210    2459
CTETRA     20810       1    2415    2416    3906    3461
CTETRA     20811       1    2375    6106    3224    6107
CTETRA     20812       1    2817    4911    2738    5039
CTETRA     20813       1    2968    3649    3138    1563
CTETRA     20814       1    3381    2313    4912    2738
CTETRA     20815       1    2387    6691     742    6616
CTETRA     20816       1    5037    2469    2468    2467
CTETRA     20817       1    3757    2467    5038    5036
CTETRA     20818       1    1440    4994    3706    5036
CTETRA     20819       1    1601    4030    3474    3258
CTETRA     20820       1    2890    2106    4274    4267
CTETRA     20821       1    2468    4913    2738    4912
CTETRA     20822       1    2313    4912    2738    4911
CTETRA     20823       1    2469    4913    5040    5037
CTETRA     20824       1    2829    2517    4408    4312
CTETRA     20825       1    2829    2517    4312    2035
CTETRA     20826       1    1446     314    1911    3156
CTETRA     20827       1    3190    3305    2813    4593
CTETRA     20828       1    2783    4203    3821    4051
CTETRA     20829       1    3550    3537    2285    3895
CTETRA     20830       1    2688    4165    5949    5950
CTETRA     20831       1    3938    3838    5647    5572
CTETRA     20832       1    2745    5655    5731    5656
CTETRA     20833       1    4407    2411    2410    2412
CTETRA     20834       1    2829    4541    2035    4312
CTETRA     20835       1    2517    4313    2035    2036
CTETRA     20836       1    4063    2517    2035    2036
CTETRA     20837       1    2078    2593    2796     793
CTETRA     20838       1    3139    4102    5970    5969
CTETRA     20839       1    1750    3553    2603    2317
CTETRA     20840       1    2021    4636    2163    4635
CTETRA     20841       1    3025    3054    2059    2445
CTETRA     20842       1    2059    3024    2613    2869
CTETRA     20843       1    2842    2376    6189    6114
CTETRA     20844       1    2833    2514    3541    4052
CTETRA     20845       1    4075    3547    3584    3604
CTETRA     20846       1    2890    4268    2997    4267
CTETRA     20847       1    2621    5809    5734    5733
CTETRA     20848       1    2890    4268    2959     456
CTETRA     20849       1    2689    4192    5951    5952
CTETRA     20850       1    4196    3029    2997    2106
CTETRA     20851       1     962     940    3899    1390
CTETRA     20852       1    3017    2659    3964    3187
CTETRA     20853       1    2869    3025    2059    3024
CTETRA     20854       1    2651    4149    1985    3451
CTETRA     20855       1    3291    3292    4464    4463
CTETRA     20856       1    3381    2910     437    3647
CTETRA     20857       1    3566    2091    2952    2941
CTETRA     20858       1    2817    2738    2467    5039
CTETRA     20859       1    2612    2467    5037    5038
CTETRA     20860       1    2612    2870    5041    2469
CTETRA     20861       1    2302    6705    6629    6704
CTETRA     20862       1    2467    2738    5037    5039
CTETRA     20863       1    2469    5040    2612    5037
CTETRA     20864       1    2819    4189    4090    6034
CTETRA     20865       1     437    2817    2313    2738
CTETRA     20866       1    1562    3467    4937     478
CTETRA     20867       1    3115    6401    6402    6326
CTETRA     20868       1    4158    6400    2899    3881
CTETRA     20869       1    2395    2457    2394    2684
CTETRA     20870       1    3026    3025    2639    3032
CTETRA     20871       1    3839    3854    5183    5167
CTETRA     20872       1    2075    2085    2304    5755
CTETRA     20873       1    2418     418    2942     417
CTETRA     20874       1    3162    6505    4024    6430
CTETRA     20875       1    2045    5636    5712    5637
CTETRA     20876       1    4054    5843     325    2553
CTETRA     20877       1    5636    3629    2045    5635
CTETRA     20878       1    3220    5858    5934    5859
CTETRA     20879       1    2968    3138    3057    1563
CTETRA     20880       1    4163    3900    3875     859
CTETRA     20881       1    2271    3652    2932    4041
CTETRA     20882       1    4191    1039    6398    3076
CTETRA     20883       1    2209    2222    3740    2221
CTETRA     20884       1     556     552    3636    3712
CTETRA     20885       1     815     800     798    1670
CTETRA     20886       1    2385    5124    2248    5135
CTETRA     20887       1    2164     967     941     901
CTETRA     20888       1     715     833     435    1718
CTETRA     20889       1    3440     699    1033    2287
CTETRA     20890       1    3440    3441    3447    2285
CTETRA     20891       1     740    3166    6240    6241
CTETRA     20892       1    4018    3168    6088    6163
CTETRA     20893       1    2557    2554    3704    3703
CTETRA     20894       1    2554    4415    2557    4316
CTETRA     20895       1    2048    2517    4417    4408
CTETRA     20896       1    2554    2505    4316    2048
CTETRA     20897       1    4409    4408    2829    4185
CTETRA     20898       1    3660    3704    2517    4060
CTETRA     20899       1    2454    6040    3623    2841
CTETRA     20900       1    1939    2242    1948    3059
CTETRA     20901       1    2193     456    2890    2959
CTETRA     20902       1    2946    6712    3171    6711
CTETRA     20903       1    1965    4031    4181    3929
CTETRA     20904       1       8    4974    6788    4975
CTETRA     20905       1    6196    2071    6271    2072
CTETRA     20906       1    2827    6197    6121    6196
CTETRA     20907       1    3216    3215    3214    3438
CTETRA     20908       1    2296    1977    2674     858
CTETRA     20909       1    2285    3447    3550    3441
CTETRA     20910       1    3277    4192    5876    5875
CTETRA     20911       1    4184    5646    5722    5647
CTETRA     20912       1    3312     951     952    3111
CTETRA     20913       1    6251    3745    6175    3172
CTETRA     20914       1    3440    6017    3447    6092
CTETRA     20915       1    4083    6193    2143    2244
CTETRA     20916       1    2143    2455    2244    6192
CTETRA     20917       1    2243    6194    2244    6269
CTETRA     20918       1    4083    6194    2072    6119
CTETRA     20919       1    3978    5395     952    3313
CTETRA     20920       1    2243    2244    6268    6269
CTETRA     20921       1    3283    3929    2954    3432
CTETRA     20922       1    4083    2072    2825    6119
CTETRA     20923       1    3154    2452    3467    3693
CTETRA     20924       1    3537    2285    5943    6018
CTETRA     20925       1    3537    3447    2285    6017
CTETRA     20926       1     699    6019    2285    6094
CTETRA     20927       1     701    3895    2285    6019
CTETRA     20928       1    2411    3827    4410    4185
CTETRA     20929       1    3836    5494    5569    5570
CTETRA     20930       1    3440     699    2287    2285
CTETRA     20931       1     806    1566    1111    1567
CTETRA     20932       1    3440    3453    2287    1033
CTETRA     20933       1    2411    4406    2829    4409
CTETRA     20934       1    2682    2680    4785    2580
CTETRA     20935       1    3626    4052    6125    6124
CTETRA     20936       1    2032    2082    4300    4299
CTETRA     20937       1    2701    2700    2682    4774
CTETRA     20938       1    2707    3255    2595    2594
CTETRA     20939       1    2708    2680    2595    4777
CTETRA     20940       1    2242    2244    3059    2243
CTETRA     20941       1    3996    1176    1585    3314
CTETRA     20942       1    3791    4000    3686    4214
CTETRA     20943       1    1966    4181    1953    4106
CTETRA     20944       1    1277    2456    2457    2966
CTETRA     20945       1     952    4681    3111    4682
CTETRA     20946       1    4075    4020    3578    6280
CTETRA     20947       1    3778    5238    5232    5225
CTETRA     20948       1    3582    6282    2801    6207
CTETRA     20949       1    6128    6127    3768    3604
CTETRA     20950       1    1902    3942    3987    3946
CTETRA     20951       1    3507    2070    5144    3254
CTETRA     20952       1    4135    3682    2587    4132
CTETRA     20953       1    3486    5205    3655    5208
CTETRA     20954       1    3331    6510    6434    6509
CTETRA     20955       1    4039    1606    6367    3717
CTETRA     20956       1    2708    2595    4778    4777
CTETRA     20957       1    3126    2464     214    2423
CTETRA     20958       1    3417    6066    1788    6141
CTETRA     20959       1    3683    2893    6067    6068
CTETRA     20960       1    1367    2256    3839    2323
CTETRA     20961       1    3582    3578    6206    3765
CTETRA     20962       1    3582    3984    6132    2801
CTETRA     20963       1    4020    6281    3578    6280
CTETRA     20964       1    6205    3769    3767    3765
CTETRA     20965       1    1325    1327    1330    1847
CTETRA     20966       1    3769    3604    6204    6129
CTETRA     20967       1    3580    2802    6209    2804
CTETRA     20968       1     755     297     508    4749
CTETRA     20969       1     755    4742    4749    4757
CTETRA     20970       1    4031    3599    2281    3988
CTETRA     20971       1    4075    3604    6279    6204
CTETRA     20972       1    2033    2079    4598    2034
CTETRA     20973       1    2207    5672    5748    5673
CTETRA     20974       1    2457    2466    2079    1686
CTETRA     20975       1    4083    2826    2825    2072
CTETRA     20976       1    2834    2861    2827    2072
CTETRA     20977       1    2825    2072    6120    6119
CTETRA     20978       1    4083    2246    3478    2143
CTETRA     20979       1    2527    2624    2507    2623
CTETRA     20980       1    4027    4082    3528    2827
CTETRA     20981       1    1426    2384    2353    3155
CTETRA     20982       1    3932    3194    2543    2542
CTETRA     20983       1    1773    1718     435    2876
CTETRA     20984       1    1488    3919    2809    2250
CTETRA     20985       1    4073    3497    4066    3928
CTETRA     20986       1    3497    3819    2168    4427
CTETRA     20987       1    1910    1754    1464    1076
CTETRA     20988       1    3295    6147    2610    6148
CTETRA     20989       1    3085    3078    3243    1172
CTETRA     20990       1    5704    3325    5705    5780
CTETRA     20991       1    2151    6002    2556    2473
CTETRA     20992       1    3354    3355    3213    5120
CTETRA     20993       1    3798    4055    5845    4054
CTETRA     20994       1     822    6084     799    2733
CTETRA     20995       1    3447    3440    6092    6091
CTETRA     20996       1    3443    6016    6091    3447
CTETRA     20997       1    4019    6162    3173    6237
CTETRA     20998       1    2368    3631    2155     814
CTETRA     20999       1    3552    3424    3437    3423
CTETRA     21000       1    3502    3509    3513    3510
CTETRA     21001       1    2566    3845    5859    2173
CTETRA     21002       1    3157    3320    3286    3321
CTETRA     21003       1    1009    3709    5720    5795
CTETRA     21004       1     810    1178    3676    3536
CTETRA     21005       1    3964    1730    3803    2658
CTETRA     21006       1     688    5249    5253    5250
CTETRA     21007       1    4185    2557    4416    2048
CTETRA     21008       1    2557    4415     819    4413
CTETRA     21009       1    4413    3593    2551     819
CTETRA     21010       1    3499    2551    4426    4420
CTETRA     21011       1    2557    4185    3593    3662
CTETRA     21012       1    2557    4416    2048    4316
CTETRA     21013       1    2329    1250    2333    2328
CTETRA     21014       1    2554    2557    2048    4316
CTETRA     21015       1    2016    2204    2393    4287
CTETRA     21016       1     761    1824    1096    1091
CTETRA     21017       1    6006    1670    3823    2123
CTETRA     21018       1    2006    2556    6003    2473
CTETRA     21019       1    3085    4176    5852    2473
CTETRA     21020       1    3762    4084     794    2594
CTETRA     21021       1    6063    5988    6064    1919
CTETRA     21022       1    2708    3255    4782    4778
CTETRA     21023       1    3103    3104    2574    2279
CTETRA     21024       1    3976    1788    3417    2926
CTETRA     21025       1    3905    5836    5911    5912
CTETRA     21026       1    4084    2594    6950     794
CTETRA     21027       1    2653    2267    1229    3397
CTETRA     21028       1    4105    5692    5617    5616
CTETRA     21029       1    2077    4775    2701     402
CTETRA     21030       1     496    3966    4763    4746
CTETRA     21031       1     690    1406    3281    1769
CTETRA     21032       1    3683    3417    4021    6067
CTETRA     21033       1    2058    5623    5699    5624
CTETRA     21034       1    4119    5693    5769    5694
CTETRA     21035       1    2540    2580    4667    4666
CTETRA     21036       1    2700    2682    2713    2681
CTETRA     21037       1    4014    3105    6227    2569
CTETRA     21038       1    3857    1765    2924    2459
CTETRA     21039       1    3061    3105    4014    2569
CTETRA     21040       1    4014    2556    2569    6078
CTETRA     21041       1    1032    6675    6599    6674
CTETRA     21042       1    2924    5196    2459    1765
CTETRA     21043       1    2904    2035    2113    4539
CTETRA     21044       1     993    1005    3807    3802
CTETRA     21045       1    3940    4087    1705    3851
CTETRA     21046       1    1854    3277    1896    3614
CTETRA     21047       1    2113    4539    2035    4541
CTETRA     21048       1    2864     701    6096    6021
CTETRA     21049       1    1854    1892    1896    3277
CTETRA     21050       1    4099    3997    3680    2689
CTETRA     21051       1    6021     701    4169    2865
CTETRA     21052       1    4674    3111    2421    3643
CTETRA     21053       1    4062    1038     700    6171
CTETRA     21054       1    2657    3095    3713    3758
CTETRA     21055       1    3617    2688    2666    3614
CTETRA     21056       1    6178    1454    1497    1433
CTETRA     21057       1    2459    2692    5196    5154
CTETRA     21058       1    3111    4681    3643    4674
CTETRA     21059       1    4046    1494    3489    2154
CTETRA     21060       1    3312     951    3313     952
CTETRA     21061       1    2897    5193    1293    5192
CTETRA     21062       1    2315    5210    2459    5153
CTETRA     21063       1    3613    6919    3865    1604
CTETRA     21064       1    1292    2459    5154    2692
CTETRA     21065       1    1387    3783    4199    1369
CTETRA     21066       1    5194    2686    5196    4900
CTETRA     21067       1    3263    4685    3088    4289
CTETRA     21068       1    4457    2206    3088    2867
CTETRA     21069       1    3263    3088    4685    2393
CTETRA     21070       1    3088    2393    4288    4685
CTETRA     21071       1    4125    2421    3111    3643
CTETRA     21072       1    3263    3088    3262    3089
CTETRA     21073       1    2867    4455    3089    4457
CTETRA     21074       1    4455    2866    4418    2867
CTETRA     21075       1    5997    5922    5998    3296
CTETRA     21076       1    5997    2293    6072    5996
CTETRA     21077       1    2329    1387    4118    2333
CTETRA     21078       1    5995    4055    2739    4132
CTETRA     21079       1    1340    2203    3329    3262
CTETRA     21080       1     887    3682    3982    3683
CTETRA     21081       1    3721    4034    5847    5922
CTETRA     21082       1    3477    2581    2015    4285
CTETRA     21083       1    3682    6069    2587    4132
CTETRA     21084       1    3429    3250    3416    3625
CTETRA     21085       1    2581    4286    2015    4285
CTETRA     21086       1    1487    1488    6302    6377
CTETRA     21087       1    2864    1068     700     701
CTETRA     21088       1    2865    4169    5946    2815
CTETRA     21089       1    1007    2439    3616    1864
CTETRA     21090       1    2657    2656    3967    1336
CTETRA     21091       1    1864    2815    4170    4169
CTETRA     21092       1     701    5945    6021    4169
CTETRA     21093       1    6020     701    5945    6021
CTETRA     21094       1    4169    4170    5870    5871
CTETRA     21095       1    3856    3271    3269    3797
CTETRA     21096       1     532    5530    5454     535
CTETRA     21097       1    1366     532    4709     785
CTETRA     21098       1    3817    5790    5715    5714
CTETRA     21099       1    1921    2324    2759    2309
CTETRA     21100       1    2828    4294    4700    4295
CTETRA     21101       1    4778    4779    2595    3255
CTETRA     21102       1    2086    5753    5752    5828
CTETRA     21103       1    1506    1503    3763     609
CTETRA     21104       1    1235    1090    1092    1093
CTETRA     21105       1    3056    3098    1368    3096
CTETRA     21106       1    1940    4057    1282    2455
CTETRA     21107       1    2843    2822    4710    4696
CTETRA     21108       1    2680    2580    4787    4785
CTETRA     21109       1    2712    4670    2017    4761
CTETRA     21110       1    2595    2594    4779    4786
CTETRA     21111       1    4779    2595    3255    2594
CTETRA     21112       1    1018    2749    3072    1631
CTETRA     21113       1    3319    3890    3687    3320
CTETRA     21114       1    3660    2411    4185    3827
CTETRA     21115       1     962     564    3279    2607
CTETRA     21116       1    2229    3067    3771    3066
CTETRA     21117       1    3603    2870    5034    5031
CTETRA     21118       1    1578    6411    6335    6410
CTETRA     21119       1    1653    3358    3419    3776
CTETRA     21120       1    4992    4988    4989    2369
CTETRA     21121       1    2953     294     149    4961
CTETRA     21122       1    3757    5038    2612    5032
CTETRA     21123       1     645    6417    6493    6418
CTETRA     21124       1    3786    1283    6341    6416
CTETRA     21125       1    3117    6254    6330    6255
CTETRA     21126       1    2719    5034    3603    2870
CTETRA     21127       1    3706    5039    2817    2467
CTETRA     21128       1    1440    3525    3706    4994
CTETRA     21129       1    3449    4919    5022    5021
CTETRA     21130       1    3298     473    1851    2174
CTETRA     21131       1    3118    3377    6553    6552
CTETRA     21132       1    3002    3920    3117    6406
CTETRA     21133       1    3213    2044    5121    2957
CTETRA     21134       1    3714    3655    5190    5204
CTETRA     21135       1    3600    2944    2942    5202
CTETRA     21136       1    3594    1642    2333    1604
CTETRA     21137       1    3428    1293    5192    3655
CTETRA     21138       1    3854    5188    3600    5189
CTETRA     21139       1    2190    3253     417    5142
CTETRA     21140       1    1064    1053    6174    1061
CTETRA     21141       1    4010    4020    6356    3578
CTETRA     21142       1    2833    2834    2861    2847
CTETRA     21143       1    2942    3253     417    2190
CTETRA     21144       1    3994    3066    3154    3084
CTETRA     21145       1    3174     418    5208    5207
CTETRA     21146       1     417    2190    5207    2942
CTETRA     21147       1    3800    3394    3009    3776
CTETRA     21148       1    2843     786    4696    4697
CTETRA     21149       1    3256    4052    6274    6275
CTETRA     21150       1    3495    4887    2943    4886
CTETRA     21151       1    3771    3619    3985    3754
CTETRA     21152       1    3253    2943    5149    5142
CTETRA     21153       1    2943    4887    2445    5149
CTETRA     21154       1    3254    4886    2943    5148
CTETRA     21155       1    3054    3495    4887    2943
CTETRA     21156       1    2190    5207    2942    5206
CTETRA     21157       1    2540    2393    4685    4668
CTETRA     21158       1    3894    3675    2202    3160
CTETRA     21159       1    4139    3798    5845    4054
CTETRA     21160       1    3340    1093    2065    1091
CTETRA     21161       1    3263    3089    1908    4289
CTETRA     21162       1    3263    4289    1908    4685
CTETRA     21163       1    3190    3189    3305    4579
CTETRA     21164       1    6113     528    2993    2376
CTETRA     21165       1    3075     953    1747    3529
CTETRA     21166       1    2490    6492    3164    6567
CTETRA     21167       1    2030    5747    5822    5823
CTETRA     21168       1     532    2843    4708     785
CTETRA     21169       1    2548    3627    3584    3604
CTETRA     21170       1    3584    6202    3627    6277
CTETRA     21171       1    1537    3812    2559    2849
CTETRA     21172       1    2032    4299    3527    2082
CTETRA     21173       1    3582    6282    3580    2801
CTETRA     21174       1    4708    4697     785    2843
CTETRA     21175       1    4061    2861    6198    6123
CTETRA     21176       1    6273    6198    6274    4056
CTETRA     21177       1    3256    3627    4052    6275
CTETRA     21178       1    4052    6275    3627    6200
CTETRA     21179       1    2833    4052    4061    2861
CTETRA     21180       1    4052    6200    3627    6125
CTETRA     21181       1    2374    6344    3225    2243
CTETRA     21182       1    1423    4029    3580    3579
CTETRA     21183       1    4046    3673    1494    2154
CTETRA     21184       1    3672     809    3822    3823
CTETRA     21185       1    2587    4132    6069    6070
CTETRA     21186       1    2655    3104    2279    6150
CTETRA     21187       1    1991    1293    5195    5191
CTETRA     21188       1    2814    3982    2553    2812
CTETRA     21189       1    3019    3654    1991    5157
CTETRA     21190       1    4132    4055    5994    5995
CTETRA     21191       1    5920    5995    4055    2739
CTETRA     21192       1    3800    3636    3637    3394
CTETRA     21193       1    1594    6930    5766    5691
CTETRA     21194       1    1631    3717    1642    3594
CTETRA     21195       1    3736    3749    6847    2912
CTETRA     21196       1    1252    3865    3998    3691
CTETRA     21197       1    1766    1788    1768    1767
CTETRA     21198       1    3525    3706    4994    4908
CTETRA     21199       1    2887    3741    3375    3233
CTETRA     21200       1    2392    2817    4909    4910
CTETRA     21201       1    3345    1390    3525    1440
CTETRA     21202       1    2395    2396    3018    3303
CTETRA     21203       1    3440    3442    1033    6168
CTETRA     21204       1    3755    1608    3185    3757
CTETRA     21205       1    5140    2313    3741    5138
CTETRA     21206       1    3168    3443    6090    3166
CTETRA     21207       1    1446    4200    3156    3234
CTETRA     21208       1    3806    2061    4425    4320
CTETRA     21209       1    3823    2571    6081    6080
CTETRA     21210       1    4413    2551    2868     819
CTETRA     21211       1    3443    3192    3821    3169
CTETRA     21212       1     699    1033     700    6170
CTETRA     21213       1    4164    4050    2606    3538
CTETRA     21214       1    3442    1033    6168    6243
CTETRA     21215       1    4032    3611    3353    3354
CTETRA     21216       1    3443    6166    3442    6091
CTETRA     21217       1    4136    3166    6241    6166
CTETRA     21218       1    4191     216    6397    6396
CTETRA     21219       1    4136    3166     740    6241
CTETRA     21220       1    6090    3168    6089    3192
CTETRA     21221       1    1368    3654    2322    2323
CTETRA     21222       1    3955    3956    4186    2686
CTETRA     21223       1    3408    1768    2926    6926
CTETRA     21224       1    2574    6149    2279    3104
CTETRA     21225       1    1606    6442    6366    6441
CTETRA     21226       1     776    4123    3729    3727
CTETRA     21227       1    3486    3174     418    5208
CTETRA     21228       1    3104    2279    6150    6149
CTETRA     21229       1    3486     231     418    3174
CTETRA     21230       1     784     535     534     532
CTETRA     21231       1    5131    3219    1765    2248
CTETRA     21232       1    3263    1505    1504    1908
CTETRA     21233       1    6236    6311    6235    3173
CTETRA     21234       1    2909    2248    3219    5131
CTETRA     21235       1    2314    5153    2924    4897
CTETRA     21236       1    3771    3084    2987    3066
CTETRA     21237       1    2573    2655    2569    6151
CTETRA     21238       1    3331    4035    2758    4028
CTETRA     21239       1    1991    5195    1292    5156
CTETRA     21240       1    1293    1291    1292    2692
CTETRA     21241       1     612     535     534     784
CTETRA     21242       1    2160    4057    6339    6340
CTETRA     21243       1    2070    3254    5143    5144
CTETRA     21244       1    3054    2370    3495    3770
CTETRA     21245       1    3053    2370    3619    2369
CTETRA     21246       1    3024    2469    2468     486
CTETRA     21247       1    2719    4993    3603    5034
CTETRA     21248       1    2665    3774    3771    3770
CTETRA     21249       1    3619    4989    3495    4985
CTETRA     21250       1    4886    3254    4885    5147
CTETRA     21251       1    2370    2719    3054    4887
CTETRA     21252       1    2719    2059    4888    5035
CTETRA     21253       1    3053    2369    3603    2370
CTETRA     21254       1     645    6418    1283    6417
CTETRA     21255       1    1607    5030    2878    5024
CTETRA     21256       1    3754    4986    3985    3084
CTETRA     21257       1    2719    4887    2370    4993
CTETRA     21258       1    1608    3603    5031    2870
CTETRA     21259       1    2880    2998    6796    6721
CTETRA     21260       1    3662     177    3705     176
CTETRA     21261       1    3981    3976    3417    2926
CTETRA     21262       1    3804    3813    3714    3428
CTETRA     21263       1    3662     177     176     816
CTETRA     21264       1    4039    2300    6368    1606
CTETRA     21265       1    2587    2588    6144    4021
CTETRA     21266       1    3860    2400    2459    2315
CTETRA     21267       1    6075    2655    6150    3104
CTETRA     21268       1    2574    6149    3104    6148
CTETRA     21269       1    1185    1093    3798    1186
CTETRA     21270       1    3444    4137    4125    3996
CTETRA     21271       1    4133    4119    4105     326
CTETRA     21272       1     414    4347    3951    4346
CTETRA     21273       1    1760    5618    5694    5619
CTETRA     21274       1    2553    5918    3682    4055
CTETRA     21275       1    3459    2654    1594    1611
CTETRA     21276       1    2927    5916    2893    5917
CTETRA     21277       1    6066    3981    6067    3417
CTETRA     21278       1    6219    3013    4021    2588
CTETRA     21279       1    3409    6926    2927    6927
CTETRA     21280       1    3594    1605    1606    3717
CTETRA     21281       1    2926    6925    1788    6066
CTETRA     21282       1    2587    3683    4021    6068
CTETRA     21283       1    2892    3004    2152    2879
CTETRA     21284       1    6140    6215    6139    1768
CTETRA     21285       1    6290    1767    1788    1778
CTETRA     21286       1    3771    3084    3754    3985
CTETRA     21287       1    2798    1626    1619    2776
CTETRA     21288       1    4048    3936    3976    2926
CTETRA     21289       1    1766    1767    1778    1788
CTETRA     21290       1    3654    3428    5191    5184
CTETRA     21291       1    3174    3655    3486     231
CTETRA     21292       1    3662    3289     177     816
CTETRA     21293       1    1991    3428    1293    5191
CTETRA     21294       1    2944    2190    5206    5198
CTETRA     21295       1    4194    3030    2066    2890
CTETRA     21296       1    2168    3499    2551    4426
CTETRA     21297       1    3845    5857    1670    5932
CTETRA     21298       1    2922    5709    5633    5708
CTETRA     21299       1    4004    2473    2006    2123
CTETRA     21300       1    2045    5710    2173    5785
CTETRA     21301       1    3491    3083    2960    2959
CTETRA     21302       1    3491    2959    2107    3083
CTETRA     21303       1    6083     798     799     800
CTETRA     21304       1    3516    4135    2587    2293
CTETRA     21305       1    3153    3004    5998    6073
CTETRA     21306       1    1477    5238    5226    5241
CTETRA     21307       1    2877     192     515     513
CTETRA     21308       1    3019    1292    5211    5156
CTETRA     21309       1    3489    1493    5234    1494
CTETRA     21310       1    3012    3013    2588    4021
CTETRA     21311       1    3091    5224     713    5246
CTETRA     21312       1    2070    3254    2190    5143
CTETRA     21313       1    2069    2944    5199    5198
CTETRA     21314       1    5203    5189    3174    3600
CTETRA     21315       1    1103     448    1312     575
CTETRA     21316       1    4028    4029    4010    6358
CTETRA     21317       1    4075    4020    4023    3824
CTETRA     21318       1    3283    3600    3854    5188
CTETRA     21319       1    3021    6272    2071    6271
CTETRA     21320       1    1423    4029    3579    3496
CTETRA     21321       1    4028    6433    6508    6509
CTETRA     21322       1    2040    2851    2041    2042
CTETRA     21323       1    3815    4031    2281    4080
CTETRA     21324       1    4430    2885    2168    3497
CTETRA     21325       1     608    3289     640     817
CTETRA     21326       1    2070    5143    2190    5198
CTETRA     21327       1    3174    5203    2942    5207
CTETRA     21328       1    3174    5207    2942     418
CTETRA     21329       1    3714    3174    5204    5189
CTETRA     21330       1    4029    3580    4010    6358
CTETRA     21331       1    3092    2400    2162    3019
CTETRA     21332       1    2034    2593    4301    4300
CTETRA     21333       1    4079    6052    3746    5977
CTETRA     21334       1    2111    4583    3877    3803
CTETRA     21335       1    2082    3255    4781    4773
CTETRA     21336       1    3532    2708    3255    4782
CTETRA     21337       1    3532    2708    4782    4783
CTETRA     21338       1    3255    2594    4781    4779
CTETRA     21339       1    2593    3255    2594    4781
CTETRA     21340       1    2594    2593     793    2796
CTETRA     21341       1    4134     437    2817    2313
CTETRA     21342       1     929     959     944    1390
CTETRA     21343       1    3434    2639    2908    3646
CTETRA     21344       1    4158    3101    3745    3172
CTETRA     21345       1    2054    1438    1434    1428
CTETRA     21346       1    4089    3626    3540    3627
CTETRA     21347       1    2079    2034    4596    4598
CTETRA     21348       1    3815    2281    4031    2986
CTETRA     21349       1    2455    2842    4057    6190
CTETRA     21350       1    1747    3999    5976    5975
CTETRA     21351       1    3914    2088    4062     857
CTETRA     21352       1    2281    2797    3874    3815
CTETRA     21353       1    3530    1858    4058    1855
CTETRA     21354       1    2931     606     217     216
CTETRA     21355       1     939     929     942    1050
CTETRA     21356       1    3744    3172    6176    6175
CTETRA     21357       1    2940    1011     686    1010
CTETRA     21358       1    3841     666    4059     664
CTETRA     21359       1    2164     901     902     967
CTETRA     21360       1    3958    4146    5005    5000
CTETRA     21361       1    3117    3145    6405    6404
CTETRA     21362       1    3791    3686    4000    3685
CTETRA     21363       1    3774    3770    3027    3054
CTETRA     21364       1    3224    4087    6105    6106
CTETRA     21365       1    2269    2307     476    4930
CTETRA     21366       1    1454    6180    4045    1484
CTETRA     21367       1    2833    4056    4052    2861
CTETRA     21368       1    3136    6497    6421    6496
CTETRA     21369       1    3136    6498    3231    6423
CTETRA     21370       1    2834    2071    2861    2072
CTETRA     21371       1    3495    3619    4985    3985
CTETRA     21372       1    3196     133     744    2000
CTETRA     21373       1    3084    3994    3754    4925
CTETRA     21374       1    1040    6172    1053    6097
CTETRA     21375       1    1040    6247    1064    6172
CTETRA     21376       1    3076    3745    6249    6324
CTETRA     21377       1    1064    3745    6174    6249
CTETRA     21378       1    1052    3680    3679    1053
CTETRA     21379       1    1053    6174    3744    6099
CTETRA     21380       1     393     369    5101    5103
CTETRA     21381       1    1004    3680    1052    1054
CTETRA     21382       1    3880    3881    4158    2899
CTETRA     21383       1    1084    2088    4191    1039
CTETRA     21384       1    2900    6475     933    6474
CTETRA     21385       1    4885    3985    4884    3507
CTETRA     21386       1    3588    3046    3603    2878
CTETRA     21387       1    4148    6382    1548    1089
CTETRA     21388       1    3489    4897    3418    4896
CTETRA     21389       1    3535    4197    3173    2733
CTETRA     21390       1    4207    4197    6309    6310
CTETRA     21391       1    1731    5235    1494    4895
CTETRA     21392       1    3418    4896    2154    3489
CTETRA     21393       1    6079    6154    6078    2556
CTETRA     21394       1    3489    5209    2314    4897
CTETRA     21395       1    2889    3678    2248    2385
CTETRA     21396       1     940    2044    3899    5115
CTETRA     21397       1    2924    2248    3418    5134
CTETRA     21398       1    3868    2763    3331    2758
CTETRA     21399       1    4015    2804    6361    6286
CTETRA     21400       1    1912    1907     405    2902
CTETRA     21401       1    2944    5206    2190    2942
CTETRA     21402       1     170    2944    2190    2942
CTETRA     21403       1    3580    6284    2804    6209
CTETRA     21404       1    4035    4029    6359    6360
CTETRA     21405       1    3281     412    6213    6212
CTETRA     21406       1    2802    6209    2804    6210
CTETRA     21407       1    3281    1777    1767    2778
CTETRA     21408       1    3600    2942    5203    5202
CTETRA     21409       1    4015     412    6286    6287
CTETRA     21410       1    3736    2912    6847    5200
CTETRA     21411       1    3330    6436    6511    6512
CTETRA     21412       1    6586    6511    3371    3869
CTETRA     21413       1    4075    6280    3578    3765
CTETRA     21414       1    3601    2579    3824    2265
CTETRA     21415       1    3656    3332    4047    3657
CTETRA     21416       1    2146    2069    2806    3280
CTETRA     21417       1    4075    3604    6278    6279
CTETRA     21418       1    3371    6511    6586    6587
CTETRA     21419       1    6359    6283    3580    6358
CTETRA     21420       1    4047    4010    4028    2773
CTETRA     21421       1    4024    6356    4020    6355
CTETRA     21422       1    4104    5568    5644    5569
CTETRA     21423       1    2218    3188    3847    3190
CTETRA     21424       1    2395    3304    3965    4600
CTETRA     21425       1    6032    4090    6108    2375
CTETRA     21426       1    1960    3011    3211    1687
CTETRA     21427       1    4603    2684     795    1686
CTETRA     21428       1    3304    2684    4603    2395
CTETRA     21429       1     793    2226    4596    4303
CTETRA     21430       1    3304    4601    4603    2684
CTETRA     21431       1    4201    4111    5881    4112
CTETRA     21432       1     471    3305    3304    4588
CTETRA     21433       1    2428    4613    3058    3649
CTETRA     21434       1    3189    4578    3965    4587
CTETRA     21435       1    3772    5812    5737    5736
CTETRA     21436       1    3965    1686    4600    4599
CTETRA     21437       1    4111    5806    5731    5730
CTETRA     21438       1    3623    3923    3897    5965
CTETRA     21439       1     528    1930    2992    2993
CTETRA     21440       1    4601     474    2684    3304
CTETRA     21441       1     336    6111    6187     528
CTETRA     21442       1     106    3176    3843     105
CTETRA     21443       1     607    1506     642    4084
CTETRA     21444       1    2885    2551    2867    4429
CTETRA     21445       1     709    1965     707    4031
CTETRA     21446       1    4429    2551    2168    2885
CTETRA     21447       1     818    2868    2551     819
CTETRA     21448       1     708    2917    2916    2774
CTETRA     21449       1    3819    4426    2168    4427
CTETRA     21450       1     584     818    2866    3262
CTETRA     21451       1    2204    3088    4288    4456
CTETRA     21452       1    2741    2205    2874    4460
CTETRA     21453       1    5470    3217    5471    5546
CTETRA     21454       1    6723    2880    6798    6722
CTETRA     21455       1    2168    2551    4422    4426
CTETRA     21456       1    2205    4441    2206    4456
CTETRA     21457       1    2098    3497    4427    3819
CTETRA     21458       1    3555    3999    5974    6049
CTETRA     21459       1    3527    4773    2082    4299
CTETRA     21460       1    1563    2027    2033    4612
CTETRA     21461       1    2033    4576    2034    4598
CTETRA     21462       1     401    4776     402     403
CTETRA     21463       1     953    1747    5902    5901
CTETRA     21464       1    3757    2467    2816    2612
CTETRA     21465       1    3757    2612    5038    2467
CTETRA     21466       1    1781     596    1997    1180
CTETRA     21467       1    3958    5000    5005    4999
CTETRA     21468       1     930    5006    4904    4905
CTETRA     21469       1    3375    5135    2248    5132
CTETRA     21470       1    2887    3375    3741    3355
CTETRA     21471       1    3646    2468    3648    2816
CTETRA     21472       1    2880    6723    6647    6722
CTETRA     21473       1    3755    1607    3185    1608
CTETRA     21474       1    3899    5137    2392    3525
CTETRA     21475       1    1016    1030    2284     991
CTETRA     21476       1    3128    2465    2466    3965
CTETRA     21477       1    2033    4598    2079    4575
CTETRA     21478       1    2020    5744    3342    5745
CTETRA     21479       1    3964    3189    3803    2465
CTETRA     21480       1    4595    2466    2465    3965
CTETRA     21481       1    1686    2079    2457    2226
CTETRA     21482       1    1714    2630    1860    1752
CTETRA     21483       1    4010    3578    6356    6357
CTETRA     21484       1    3775    2070    3254    2190
CTETRA     21485       1    1153    3569    3897    3923
CTETRA     21486       1    2068    3507    2070    5144
CTETRA     21487       1    3994    4924     477    3754
CTETRA     21488       1    3754    4924    4984    4986
CTETRA     21489       1    2491    6495    4017    2373
CTETRA     21490       1    3774    3254    3495    2943
CTETRA     21491       1    3990    6420    6495    6496
CTETRA     21492       1    2880    3634    6721    6646
CTETRA     21493       1    2578    3162    6504    3573
CTETRA     21494       1    6647    6646    3309    2880
CTETRA     21495       1    3402    3676     810     809
CTETRA     21496       1     917    2002    3468    5146
CTETRA     21497       1    2798     709    2797    2776
CTETRA     21498       1    3613    6917    6665    6740
CTETRA     21499       1    3005    2619    6294    6370
CTETRA     21500       1     818    2866    2551    2868
CTETRA     21501       1    1292    1991    1279    1293
CTETRA     21502       1    3817    5715    5640    5639
CTETRA     21503       1    2783    4050    4203    4051
CTETRA     21504       1    4185    2048    4416    4408
CTETRA     21505       1    3550    3537    3895    3538
CTETRA     21506       1    1792    1777     684    1641
CTETRA     21507       1    2052    2221    4311    3828
CTETRA     21508       1    3740    4542    2221    4472
CTETRA     21509       1    2774    3371    2776      99
CTETRA     21510       1    3662    4185    3593    4200
CTETRA     21511       1    2052    2113    4541    4543
CTETRA     21512       1    3593    3662     819    2557
CTETRA     21513       1    3660    2411    2829    4185
CTETRA     21514       1    3867    5941    4203    5866
CTETRA     21515       1    3660    4185    2829    2517
CTETRA     21516       1    4311    4406    2829    3828
CTETRA     21517       1    3854    3714    5183    5189
CTETRA     21518       1    3985    4884    3507    3084
CTETRA     21519       1    2323    5168    3813    5184
CTETRA     21520       1    2947    6784    1205    3556
CTETRA     21521       1    3125    3792    3283    3854
CTETRA     21522       1    2777    2778    6363    6364
CTETRA     21523       1      99    6513    6589    6514
CTETRA     21524       1    3657    2764    4047    3656
CTETRA     21525       1    3331    4028    6509    6434
CTETRA     21526       1    2330    2209    2222    3796
CTETRA     21527       1    3865    6591    6919    6918
CTETRA     21528       1     208    6439    1621    2777
CTETRA     21529       1    1897    1900    1901    2461
CTETRA     21530       1    2679    2595    2680    2580
CTETRA     21531       1    3769    6054    3768    6129
CTETRA     21532       1    5982    4098    6057    5981
CTETRA     21533       1    1906    5984    6060    1907
CTETRA     21534       1    3261    3263    1505    4068
CTETRA     21535       1    2702    4068    1504    2540
CTETRA     21536       1     873    1344    5686    5687
CTETRA     21537       1    2477    1623    2015    2471
CTETRA     21538       1    1904    3943    3945    3947
CTETRA     21539       1    3987    5979    3942    3746
CTETRA     21540       1     208    1621    6514    3873
CTETRA     21541       1    3986    4098    3946    5981
CTETRA     21542       1    3945    3947    3943    4093
CTETRA     21543       1    3942    3746    5979    5978
CTETRA     21544       1    4093    3946    4098    5981
CTETRA     21545       1    6512    3371    3330     208
CTETRA     21546       1    2550    4089    3768    6052
CTETRA     21547       1    1288    1984    3701    1469
CTETRA     21548       1    6281    3578    6206    6282
CTETRA     21549       1    2452    2523    2960    3492
CTETRA     21550       1    4056    6198    4052    2861
CTETRA     21551       1    1545    3772    5661    5736
CTETRA     21552       1    2883    3732    3870    3423
CTETRA     21553       1    3555    5974    3350    5973
CTETRA     21554       1    2457    2568    2458    2456
CTETRA     21555       1    3768    2547    2550    3746
CTETRA     21556       1    3968    5748    5824    5749
CTETRA     21557       1    2071    4056    2512    2836
CTETRA     21558       1    1525    1521    1522    1519
CTETRA     21559       1    2049    5899    3350    5974
CTETRA     21560       1    2086    5753    5678    5677
CTETRA     21561       1    4079    5977    3746    5902
CTETRA     21562       1    2033    2080    2456    2079
CTETRA     21563       1    2079    4596    2034    2593
CTETRA     21564       1    2593     793    2078    2079
CTETRA     21565       1    2466    2079    1686    4597
CTETRA     21566       1    3225    6270    2071    2243
CTETRA     21567       1    3886    1519      57    3388
CTETRA     21568       1    4074    1972    2806    2805
CTETRA     21569       1     645    1283    6416    6417
CTETRA     21570       1    2243    2244    6194    2072
CTETRA     21571       1    3953    3005    6370    2619
CTETRA     21572       1    2005    2619    2611    6296
CTETRA     21573       1    1530    1519      57    1529
CTETRA     21574       1    2599    2293    6146    6071
CTETRA     21575       1    1521    1524    3388    3780
CTETRA     21576       1    3013    3005    6294    6293
CTETRA     21577       1    3763    2595    2679    2538
CTETRA     21578       1    2747    2752    1565     897
CTETRA     21579       1     891    4693    4742    4743
CTETRA     21580       1    4081    3266    2443    2304
CTETRA     21581       1    3527    3532    2082    4773
CTETRA     21582       1     745    4772    3527    4759
CTETRA     21583       1     485    4741    4740    4752
CTETRA     21584       1     403    4783    3532    4771
CTETRA     21585       1    4081    4093    5907    5906
CTETRA     21586       1    2071    4056    2861    6272
CTETRA     21587       1    2839    2243    2071    2072
CTETRA     21588       1    3774    3027    3041    3054
CTETRA     21589       1    2072    2861    6196    2071
CTETRA     21590       1    2350    2490    3164    3201
CTETRA     21591       1    3739    3021    2071    3225
CTETRA     21592       1    3021    2071    6272    4056
CTETRA     21593       1    2071    2243    6270    2072
CTETRA     21594       1    3990    3225    6421    6346
CTETRA     21595       1    2957    2392    5129    5138
CTETRA     21596       1    2060    3223    1050     930
CTETRA     21597       1     711     765    6314    6315
CTETRA     21598       1    4116     541    1502    4022
CTETRA     21599       1    3638     723    1162    6467
CTETRA     21600       1    3899    2392    5137    5129
CTETRA     21601       1    2889    3678    2909    2248
CTETRA     21602       1    3859    3489    4046    1248
CTETRA     21603       1    3173    2733    6235    6236
CTETRA     21604       1    4207    2228    6310    6385
CTETRA     21605       1    4136    3441    3169    3443
CTETRA     21606       1    1307    3695    3833    4044
CTETRA     21607       1     725    6462    6386    6461
CTETRA     21608       1    6243    3453     857     856
CTETRA     21609       1    2234    2235    5112    3610
CTETRA     21610       1    1492    2585    3673    4046
CTETRA     21611       1    5124    3418    4896    2154
CTETRA     21612       1    2314    2924    3418    4897
CTETRA     21613       1    2162    1247    5240    2400
CTETRA     21614       1     724     750    1977    1976
CTETRA     21615       1     711     718     719     766
CTETRA     21616       1    4197    2733    6234    6235
CTETRA     21617       1    2411    3827    2412    4410
CTETRA     21618       1     856    3442    6243    3453
CTETRA     21619       1    3175    2930    3047    4319
CTETRA     21620       1    1632    6217    3417    6216
CTETRA     21621       1    2336    2447    2449    2372
CTETRA     21622       1    2321    5159    2323    5158
CTETRA     21623       1    3013    2588    6219    6294
CTETRA     21624       1    6218    6219    3013    4021
CTETRA     21625       1    3096    3019    3654    1991
CTETRA     21626       1    3963     741    2712    3966
CTETRA     21627       1    3833    1991    3428    1293
CTETRA     21628       1    2323    5184    3654    5158
CTETRA     21629       1    3219    2248    2909    3678
CTETRA     21630       1    4138    2859    4179    3422
CTETRA     21631       1    4198    2897    3165    2704
CTETRA     21632       1    3673    4895    1494    5110
CTETRA     21633       1    3919    1487    3799    1476
CTETRA     21634       1    2322    3654    3019    5157
CTETRA     21635       1    2162    3019    2400    5211
CTETRA     21636       1     330    3920    2337    6333
CTETRA     21637       1    4190    3493    4142    4150
CTETRA     21638       1    3185    1440    3757    5027
CTETRA     21639       1    3619    2369    4987    3950
CTETRA     21640       1    3588    2369    2308    2878
CTETRA     21641       1    1608    2870    5031    5033
CTETRA     21642       1    2878    1608    3603    5031
CTETRA     21643       1    3046    2878    1608    3603
CTETRA     21644       1    6189    6264    2376    2842
CTETRA     21645       1    4173    5883    4189    5884
CTETRA     21646       1    3067     477    3066     478
CTETRA     21647       1    2869    2469    2613    2870
CTETRA     21648       1    2351    2373    2491    4017
CTETRA     21649       1    3859    3489    2315    2314
CTETRA     21650       1    4096    3353    3355    3213
CTETRA     21651       1    2234    2385    5126    5111
CTETRA     21652       1    5136    3375    5135    2385
CTETRA     21653       1    3375    3233    5133    5132
CTETRA     21654       1    3722    4201    3887    3889
CTETRA     21655       1    4058    4192    2689    5952
CTETRA     21656       1    2621    3850    5810    3606
CTETRA     21657       1    4058    3889    5878    5953
CTETRA     21658       1    6027    4100    5952    6028
CTETRA     21659       1    2336     645    2491    2373
CTETRA     21660       1    2375    4087    6106    6031
CTETRA     21661       1    4201    3940    2364    5955
CTETRA     21662       1    2850    3867    2783    4164
CTETRA     21663       1    2946    3150    6785    1205
CTETRA     21664       1    3150    1205    6784    6785
CTETRA     21665       1    4201    3722    3887    4111
CTETRA     21666       1    2689    4192    5950    5951
CTETRA     21667       1    5798    1887    5723    5799
CTETRA     21668       1    2904    2113    2813    4538
CTETRA     21669       1    2173    3844    3845    5783
CTETRA     21670       1    3822     815    3551    1670
CTETRA     21671       1    4055    2814    3798    1236
CTETRA     21672       1     799    4197    6234    6233
CTETRA     21673       1    2349    2350    3197    3200
CTETRA     21674       1    4022    1502     630     631
CTETRA     21675       1    3631    2139    2566    3220
CTETRA     21676       1    3071    3178    1826    1825
CTETRA     21677       1    3081    3819    2098    3806
CTETRA     21678       1    3738    3845    3220    2566
CTETRA     21679       1    3490    2168    3499    2551
CTETRA     21680       1    2057     656    2896     158
CTETRA     21681       1    2138    2733    6161    6085
CTETRA     21682       1    4197    6235    3173    2733
CTETRA     21683       1    3191    6012    2139    6011
CTETRA     21684       1     799    2733    6084    6159
CTETRA     21685       1    1248    3272    1493    1495
CTETRA     21686       1    4148    6233    6309    4197
CTETRA     21687       1     538    6687    6612    6611
CTETRA     21688       1    3535    4197    4207    3173
CTETRA     21689       1     688    3931    3591    4208
CTETRA     21690       1    4197    3173    6235    6310
CTETRA     21691       1    1784     688    1095     595
CTETRA     21692       1    6159    6234     799    2733
CTETRA     21693       1    3213    5128    3355    2957
CTETRA     21694       1    3355    3611    3375    5127
CTETRA     21695       1    3002    6480    3145    3640
CTETRA     21696       1    2607    3899    2392    3525
CTETRA     21697       1    1440    3757    5027    5036
CTETRA     21698       1    2043    3766    3213    2044
CTETRA     21699       1    1390    3899    3525    5116
CTETRA     21700       1    3931     971    4208    3049
CTETRA     21701       1    3899    3525    5116    5137
CTETRA     21702       1    2330    2222    2209    2332
CTETRA     21703       1    3822    1670    3670    2123
CTETRA     21704       1    3670    2123    1670    5931
CTETRA     21705       1    3845    1670    3220    5933
CTETRA     21706       1     798    3220    5933    6008
CTETRA     21707       1    1670    2123    6006    5931
CTETRA     21708       1    6082     800    6007    6083
CTETRA     21709       1     814    1670     798    3220
CTETRA     21710       1    3670    1670    5857    5856
CTETRA     21711       1    3670    3845    5857    1670
CTETRA     21712       1    3714    3600    3854    3125
CTETRA     21713       1    4010    3578    6357    6282
CTETRA     21714       1     231    3486     230    4044
CTETRA     21715       1    3591    3592     597    3274
CTETRA     21716       1    3804    3125    3714    3813
CTETRA     21717       1    5189    3174    3600    3714
CTETRA     21718       1    3813    3714    5190    5183
CTETRA     21719       1    3714    3174    3655    5204
CTETRA     21720       1    3654    1991    5157    5191
CTETRA     21721       1    2886    3233    2909    2910
CTETRA     21722       1    3037    1089    1548    1550
CTETRA     21723       1    2273    2274    3501    2278
CTETRA     21724       1    2182    2856    2857    2858
CTETRA     21725       1    1475    2925    6454    6529
CTETRA     21726       1    1493    1247    2315    5237
CTETRA     21727       1    2223    2279    6300    6301
CTETRA     21728       1    2400    5154    1292    2459
CTETRA     21729       1    3003    3373    3391    5227
CTETRA     21730       1    4027    2827    6122    6047
CTETRA     21731       1    3075    5675    5674    5750
CTETRA     21732       1    3870    2030    5821    5897
CTETRA     21733       1    4089    3626    3627    6126
CTETRA     21734       1    2700    2713    2682    4784
CTETRA     21735       1     403    3532    4783    2708
CTETRA     21736       1    2679    2680    2682    2580
CTETRA     21737       1    2681    2701    2700    2682
CTETRA     21738       1    2682    2580    4785    4667
CTETRA     21739       1    2701    2680    4775    4785
CTETRA     21740       1    2540    4667    2682    4668
CTETRA     21741       1    1594    3466     326    6929
CTETRA     21742       1    1504    2540    4666    2580
CTETRA     21743       1     402    2708    4776    4777
CTETRA     21744       1    3971    5695    5620    5619
CTETRA     21745       1    3821    5939    2604    6014
CTETRA     21746       1    3192    3821    2604    6014
CTETRA     21747       1    3863    5861    2604    5862
CTETRA     21748       1    4091    2045    5712    5637
CTETRA     21749       1    6015    6016    6091    3443
CTETRA     21750       1    2139    5861    2566    5936
CTETRA     21751       1    3931    4208     688    3049
CTETRA     21752       1    2230    3668    3067    3155
CTETRA     21753       1    2466    3965    4595    4599
CTETRA     21754       1    5660    5659    3930    3850
CTETRA     21755       1    2819    5960    4189    6035
CTETRA     21756       1    2993    2905    6037    6038
CTETRA     21757       1    2793    4092    3934    3853
CTETRA     21758       1     920    1929    2274     193
CTETRA     21759       1    3732    3423    3421    3870
CTETRA     21760       1    2143    1945    2455    2454
CTETRA     21761       1    2961    2083    3058    2084
CTETRA     21762       1    2407    4601    4602     471
CTETRA     21763       1    5891    3623    5966    3923
CTETRA     21764       1    2139    3220    5935    2566
CTETRA     21765       1    3703    3289    2555    2554
CTETRA     21766       1    1505    1506    1504     792
CTETRA     21767       1    1404    4036    2139    2604
CTETRA     21768       1    6010    3220    2139     822
CTETRA     21769       1    2604    6012    2139    3191
CTETRA     21770       1    3191    4018    3192    6087
CTETRA     21771       1     800    6007     798    1670
CTETRA     21772       1    1246    1094    1095    1300
CTETRA     21773       1    3272    1901    5230    5233
CTETRA     21774       1    2234    2233    5092    2235
CTETRA     21775       1    2889    3375    2385    2248
CTETRA     21776       1    3867    3817    5789    5790
CTETRA     21777       1    4203    3447    3537    5941
CTETRA     21778       1    5867    5942    4203    3538
CTETRA     21779       1    4203    5941    3867    3821
CTETRA     21780       1    2450    3451    2651    1985
CTETRA     21781       1     822    2733    6085    6084
CTETRA     21782       1    3191    6086    2138    4018
CTETRA     21783       1    3537    3447    6016    5941
CTETRA     21784       1    3537    6016    3447    6017
CTETRA     21785       1    4187    4193    3048    2198
CTETRA     21786       1    4203    3447    4051    3537
CTETRA     21787       1    3647    2908    3646    2910
CTETRA     21788       1    3631    4036    2566    2139
CTETRA     21789       1    3820    3821    5940    5939
CTETRA     21790       1    3867    4203    4164    5866
CTETRA     21791       1    3821    3447    5941    6016
CTETRA     21792       1     471    3303     474    3304
CTETRA     21793       1    1900    1495    1899    3514
CTETRA     21794       1    2052    1028    2113    4543
CTETRA     21795       1    5876    3277    3221    4192
CTETRA     21796       1    3190    3305    4593    4579
CTETRA     21797       1    2500    2010    2007    2009
CTETRA     21798       1    1028    4538    2813    2113
CTETRA     21799       1    3828    2829    4311    4541
CTETRA     21800       1     218     606    1657    1923
CTETRA     21801       1    2670     606     216    3969
CTETRA     21802       1    2673    3914    2674    2088
CTETRA     21803       1     944     945    4995    1440
CTETRA     21804       1    3065    2946    3150    4982
CTETRA     21805       1    4059     664    5023    3380
CTETRA     21806       1    1390    3525    4994    4908
CTETRA     21807       1    3840    2359    3711    3000
CTETRA     21808       1    1467    6182    3224    2600
CTETRA     21809       1    3426    3645    3638    6469
CTETRA     21810       1    2162    5212    1478    3019
CTETRA     21811       1    3019    5156    1991    1292
CTETRA     21812       1    2322    5213    3019    1478
CTETRA     21813       1    2996    2154    4046    3418
CTETRA     21814       1    3019    1991    5156    5157
CTETRA     21815       1    1247    5240    2400    5210
CTETRA     21816       1    3059    2455    6192    2244
CTETRA     21817       1    1943    2376    2842    1930
CTETRA     21818       1    2308    5025     665    2878
CTETRA     21819       1    2369    3603    4992    4991
CTETRA     21820       1    3341    3903    2807    3134
CTETRA     21821       1    2878    3603    4991    5031
CTETRA     21822       1    1882    2678    3493    3346
CTETRA     21823       1     562    1724    1462     868
CTETRA     21824       1    3138    3140    4610    4606
CTETRA     21825       1    2466    1686    4599    4597
CTETRA     21826       1    3479    1945    3478    2143
CTETRA     21827       1    1842    2026     911    3586
CTETRA     21828       1    4594    4595    2466    2465
CTETRA     21829       1    3189    4587    3965    3305
CTETRA     21830       1    3303    3305    3965    3304
CTETRA     21831       1    2609    3950    3619    3754
CTETRA     21832       1    2369    4987    2308    4991
CTETRA     21833       1    6273    4056    6348    6272
CTETRA     21834       1    2989    3507    3985    3254
CTETRA     21835       1     640    2868    3703    2555
CTETRA     21836       1    1685    1684    6521    6446
CTETRA     21837       1    6376    1487    6451    6375
CTETRA     21838       1     231    3655    3714    3174
CTETRA     21839       1    3019    5212    1478    5213
CTETRA     21840       1    3813    3714    3428    5190
CTETRA     21841       1    3098    2322    3019    1478
CTETRA     21842       1    2939    6299    2574    6298
CTETRA     21843       1    2599    2293    6071    6072
CTETRA     21844       1    2319    5160    2256    5159
CTETRA     21845       1    2619    2588    6294    6295
CTETRA     21846       1    2611    2939    2610    6297
CTETRA     21847       1    2939    2610    6297    6298
CTETRA     21848       1    2588    2005    6220    6295
CTETRA     21849       1    3793    2619    2586    3011
CTETRA     21850       1    3098    3391    2322    1478
CTETRA     21851       1    4983    3150    6785    2946
CTETRA     21852       1    4063    2904     473    2505
CTETRA     21853       1    4060    2829    2035    2517
CTETRA     21854       1    2666    2689    1855    4192
CTETRA     21855       1    4173    2621    2620    5808
CTETRA     21856       1    2375    2364    1986    4087
CTETRA     21857       1    2813    3305    4591    4593
CTETRA     21858       1     471    3304    4601    4588
CTETRA     21859       1    2113    1444    3264    1028
CTETRA     21860       1    1028    4537    2813    4538
CTETRA     21861       1    3828    2052    4060    4541
CTETRA     21862       1    4196    3993    3029    2106
CTETRA     21863       1    2069    2070    5198    5201
CTETRA     21864       1    2069    5198    2070    2944
CTETRA     21865       1    3066    3994     477    3754
CTETRA     21866       1    3980    2438    4209    3574
CTETRA     21867       1    3084    3753    4884    3507
CTETRA     21868       1    2070    2989    3254    3507
CTETRA     21869       1    5151    3753    5146    2068
CTETRA     21870       1    3254    3985    4885    3507
CTETRA     21871       1     168    2069    2070    2944
CTETRA     21872       1     231    4044    3714    3655
CTETRA     21873       1    2757    4010    4028    4029
CTETRA     21874       1    2915    2917    3656    2918
CTETRA     21875       1    2800    3580    3582    3578
CTETRA     21876       1    3331    6585    6509    6584
CTETRA     21877       1    2368    3179    3631     846
CTETRA     21878       1     231    3714    3600    3174
CTETRA     21879       1     170    3600    2944    2942
CTETRA     21880       1    3084    4986    3985    4884
CTETRA     21881       1    3770    3985    3619    3495
CTETRA     21882       1    2068    3753    5150    5151
CTETRA     21883       1    5147    3507    5144    3254
CTETRA     21884       1    3409    2927    4043    6927
CTETRA     21885       1     401    2077     402    4767
CTETRA     21886       1    2707    2595    2708    2680
CTETRA     21887       1    2681    2701    2682    2680
CTETRA     21888       1     400     402     401    2077
CTETRA     21889       1     401    4767     402    4776
CTETRA     21890       1    2707    3707    2594    3708
CTETRA     21891       1    2023    3731    4120    4637
CTETRA     21892       1     509     401     403    4768
CTETRA     21893       1    3942    3746    5978    5903
CTETRA     21894       1    1623    2471    1622    2581
CTETRA     21895       1    2707    2594    3707    3255
CTETRA     21896       1    3571       8    3062       6
CTETRA     21897       1    2154    2385    5125    5124
CTETRA     21898       1    3611    3375    5127    5136
CTETRA     21899       1    2044    5121    2957    5129
CTETRA     21900       1    2234    5111    2154    2385
CTETRA     21901       1    4032    3354    3610    3611
CTETRA     21902       1     719     765    6238    6239
CTETRA     21903       1     810    3536    3505    4197
CTETRA     21904       1     813    5105    5095    5099
CTETRA     21905       1    1515    5054    5043    5044
CTETRA     21906       1    3873    6514    6589    6590
CTETRA     21907       1    3391    5213    2322    1478
CTETRA     21908       1    3804    2323    3813    3654
CTETRA     21909       1    3839    2323    5168    3813
CTETRA     21910       1    4071    2205    2166    2206
CTETRA     21911       1    4200    3499    3827    3593
CTETRA     21912       1    3207    3827    2061    2412
CTETRA     21913       1    2865    3679    5948    6023
CTETRA     21914       1    2061    3499    3819    4425
CTETRA     21915       1    3286    2098    4321    3806
CTETRA     21916       1    4109    3629    2919    2922
CTETRA     21917       1    3819    2168    4426    3499
CTETRA     21918       1    1520    3071    1812    3178
CTETRA     21919       1    3928    3497    2098    3819
CTETRA     21920       1    2162    3019    5211    5212
CTETRA     21921       1    3696    3833    4044    2897
CTETRA     21922       1    5242    2162    5212    1478
CTETRA     21923       1    3610    2235    4032    2234
CTETRA     21924       1    4148    4197    1178    6233
CTETRA     21925       1    6396     216    3969    4191
CTETRA     21926       1    1999    1180    1998    1516
CTETRA     21927       1    1900    1901    3514    1099
CTETRA     21928       1    6306    1548    6382    6381
CTETRA     21929       1    6232    4148    1548    1178
CTETRA     21930       1    6308    4148    6233    6309
CTETRA     21931       1    4148    6233    1178    6232
CTETRA     21932       1    3777    3797    3383    3713
CTETRA     21933       1    4011    1549    1548    6306
CTETRA     21934       1    4011    1178    3676    2571
CTETRA     21935       1    2931     606     771     217
CTETRA     21936       1    1549    6305    4012    6304
CTETRA     21937       1    6305    6380    6304    1549
CTETRA     21938       1    3616    1052    2864    1068
CTETRA     21939       1    6605     971    6604    1713
CTETRA     21940       1    4213    2362    1515    3284
CTETRA     21941       1    2245    5254    5255    5247
CTETRA     21942       1    3673    5110    1494    2154
CTETRA     21943       1    1099    5245    1901    5229
CTETRA     21944       1    2865     701    4169    3616
CTETRA     21945       1    3418    2385    5124    2248
CTETRA     21946       1    1067    1079    2295    1080
CTETRA     21947       1    3502    4116    2228    4207
CTETRA     21948       1    1078    1080    1037    1040
CTETRA     21949       1    3489    1494    4896    2154
CTETRA     21950       1    2154    2385    5111    5125
CTETRA     21951       1    3150    4964    3065    4978
CTETRA     21952       1    2866    3263     831    3261
CTETRA     21953       1    1537    1539     754    1045
CTETRA     21954       1    5909    5984    5908    4076
CTETRA     21955       1    3532    3707    2081    3255
CTETRA     21956       1    6058    5983    6059    1906
CTETRA     21957       1    3366    2707    3708    3707
CTETRA     21958       1    2682    2713    2681    2714
CTETRA     21959       1    3216    3977    3285    4128
CTETRA     21960       1    2294    2694    3441    2356
CTETRA     21961       1    2783    1866    2257    4051
CTETRA     21962       1    1584    3996     304    3444
CTETRA     21963       1    4761    2700    4669    2017
CTETRA     21964       1    2700    2682    4774    4784
CTETRA     21965       1    2700    2713    4784    4669
CTETRA     21966       1    2700    4669    2017    2713
CTETRA     21967       1    1344     918    5536    5611
CTETRA     21968       1     873    1344    5612     918
CTETRA     21969       1    3466     326    6929    4043
CTETRA     21970       1    5922    2739    5921    3721
CTETRA     21971       1    6333    2600    6258     330
CTETRA     21972       1    6183    2716    6259    2600
CTETRA     21973       1    3920    2337    6333    6332
CTETRA     21974       1    3064    6260    2716    6335
CTETRA     21975       1    3064    3557     339    1578
CTETRA     21976       1    2950    4918    2189    4953
CTETRA     21977       1     995    3743    3878    3866
CTETRA     21978       1    1467    2375    6107    6108
CTETRA     21979       1     336    6185    2716    6260
CTETRA     21980       1    3117    3116    3114    6404
CTETRA     21981       1    2582    2552    2371    2367
CTETRA     21982       1    4010    3135    4047    6432
CTETRA     21983       1    6579    2575    6655    3573
CTETRA     21984       1    2491    2373    6493    6494
CTETRA     21985       1    4075    3578    3546    3765
CTETRA     21986       1    2882    2826    2825    4102
CTETRA     21987       1     419    3208    3485     418
CTETRA     21988       1    1792    1630    2749    2751
CTETRA     21989       1    4023    6355    4024    4020
CTETRA     21990       1    2562    3256    6350    3924
CTETRA     21991       1    3135    4010    6431    6432
CTETRA     21992       1    3774    3254    3985    3495
CTETRA     21993       1     208      99    3873    6514
CTETRA     21994       1    1597     707    1965     705
CTETRA     21995       1    4074    3621    3749    2911
CTETRA     21996       1    2611    3953    6296    2619
CTETRA     21997       1    1792    2751    1010     692
CTETRA     21998       1    2224    6375    1487    6300
CTETRA     21999       1    3208    3032    2119    2446
CTETRA     22000       1    2971    3779    3385    5287
CTETRA     22001       1    1477    2162    5239    5242
CTETRA     22002       1    2118    2121    3208    2119
CTETRA     22003       1    1476    2250    2389    3919
CTETRA     22004       1    2972    5162    2983    5218
CTETRA     22005       1    3096    3019    2322    3654
CTETRA     22006       1    2320    5214    3391    5263
CTETRA     22007       1    3371    6512    6587    6588
CTETRA     22008       1    2323    5184    3813    3654
CTETRA     22009       1    4097    2165    4066    1795
CTETRA     22010       1    1344    1331    3390    5610
CTETRA     22011       1     800    6006    1670    3823
CTETRA     22012       1    1610    1598    1609     898
CTETRA     22013       1    2927    5841    5917    2553
CTETRA     22014       1    3208    2470    3485     418
CTETRA     22015       1    4054    4055    5845    5844
CTETRA     22016       1    3721    5771    3798    5846
CTETRA     22017       1    3721    4034    3218    2065
CTETRA     22018       1    5920    3798    4055    5845
CTETRA     22019       1    3798    2739    5920    4055
CTETRA     22020       1    5921    3721    5846    5922
CTETRA     22021       1    5774    2058    3340    5773
CTETRA     22022       1    3627    6277    3924    3584
CTETRA     22023       1    3753    4884    3507    5150
CTETRA     22024       1    2806    2068    2069    2912
CTETRA     22025       1    3710    4884    3753    4883
CTETRA     22026       1    2508    2552    2115    3231
CTETRA     22027       1    2002    3736    3686    6848
CTETRA     22028       1    2068    2070    5201    5144
CTETRA     22029       1    3590    2068    3507    2070
CTETRA     22030       1    1562     476    4933    4929
CTETRA     22031       1    6579    3573    6503    6504
CTETRA     22032       1     917    3468    3753    5146
CTETRA     22033       1    3283    3392    5187    5181
CTETRA     22034       1    4088     917    2068    2912
CTETRA     22035       1    3371    6588    6513    6512
CTETRA     22036       1    3283    3280    3600    5188
CTETRA     22037       1    3280    2944    5202    5199
CTETRA     22038       1    3280    3600    5188    5202
CTETRA     22039       1    2069    3280    5199    2944
CTETRA     22040       1    3280    2069    5199    5186
CTETRA     22041       1    3623    2454    2143    6041
CTETRA     22042       1    2376    6263    6187     335
CTETRA     22043       1     940    1390    5116    3899
CTETRA     22044       1    3192    6012    6088    6013
CTETRA     22045       1    3741    2957    5138    2392
CTETRA     22046       1    1282    1283    3059    6267
CTETRA     22047       1    3427    3466    3460    4043
CTETRA     22048       1    1897    1772    1783    1770
CTETRA     22049       1    2844    3437    3528    3526
CTETRA     22050       1    2481    2501    2923    3699
CTETRA     22051       1    3351    2049    3999    1747
CTETRA     22052       1    3554    4079    1747    3999
CTETRA     22053       1     745     746    4759    2126
CTETRA     22054       1    3075    1747    5826    5825
CTETRA     22055       1    3248    3482    1769    3408
CTETRA     22056       1    3942    5980    3946    5905
CTETRA     22057       1    3263    1908    1504    2540
CTETRA     22058       1    2201    4400    3227    3431
CTETRA     22059       1    1505    4068    1504    2731
CTETRA     22060       1    2257    4050    2783    4051
CTETRA     22061       1    3497    4423    4427    2168
CTETRA     22062       1    3208    3485    2470    2121
CTETRA     22063       1    3443    3447    3169    3821
CTETRA     22064       1    4071    2011    2166    2205
CTETRA     22065       1    3410     436    2511    3957
CTETRA     22066       1    3146    2720    2110    2216
CTETRA     22067       1    4574    4573    4594    2428
CTETRA     22068       1    3628    2187    3560    4086
CTETRA     22069       1    2217    3848    2218    4550
CTETRA     22070       1    3623    3923    1153    3897
CTETRA     22071       1    3810    3265    3522    2008
CTETRA     22072       1    2428    3877    4572    4573
CTETRA     22073       1    3290    3138    3140    4610
CTETRA     22074       1    2395    3965    2466    1686
CTETRA     22075       1    2325    3336    3810    2009
CTETRA     22076       1    3803    4583    2465    4578
CTETRA     22077       1    1563    2033    4575    4612
CTETRA     22078       1      57    5742    5667    5666
CTETRA     22079       1    1404    3191    2604    2139
CTETRA     22080       1     917    3736    5200    2912
CTETRA     22081       1    3231    3021    6347    6348
CTETRA     22082       1    3436    3894    3160    3675
CTETRA     22083       1    2146    2912    2069    5201
CTETRA     22084       1     100    6664    6588    6663
CTETRA     22085       1    5937    2604    6012    2139
CTETRA     22086       1    3577    4010    3578    4020
CTETRA     22087       1    3815    2986    3874    2281
CTETRA     22088       1     170    3280    2944    3600
CTETRA     22089       1    2904    3264    2113    3298
CTETRA     22090       1    1717    2753    3864    3132
CTETRA     22091       1    3188    3189    3190    4579
CTETRA     22092       1    3188    3189    4579    4581
CTETRA     22093       1    1220    2788     590    3299
CTETRA     22094       1    2237    3675    3435    3436
CTETRA     22095       1    2368    1646     860    1643
CTETRA     22096       1    2258    4164    2783    4050
CTETRA     22097       1    1388    2410    2332    2222
CTETRA     22098       1    3827    4185    3593    4414
CTETRA     22099       1    2286     701    4169    3895
CTETRA     22100       1    1687    3210    1684    3005
CTETRA     22101       1    3827    3593    4421    4414
CTETRA     22102       1    2061    3827    4421    4411
CTETRA     22103       1    3827    3080    2061    3499
CTETRA     22104       1    4424    3497    4423    4427
CTETRA     22105       1    3662    3289    3703    3705
CTETRA     22106       1    4109    2922    3737    2173
CTETRA     22107       1    4040    3817    4091    3862
CTETRA     22108       1    2411    4185    4410    4409
CTETRA     22109       1    3994    3754    4925    4924
CTETRA     22110       1     665    2308    2306    4990
CTETRA     22111       1    3557     339     341    3697
CTETRA     22112       1    1203    1625    1624    1623
CTETRA     22113       1     335     340    3615    6263
CTETRA     22114       1    3150    2951    4964    4965
CTETRA     22115       1    3961    1607    1608    2878
CTETRA     22116       1    3001     969    2900    6550
CTETRA     22117       1     975     977     974    3742
CTETRA     22118       1    2283    6558    6559    6483
CTETRA     22119       1    2947    4954    2950    4965
CTETRA     22120       1    2947    3150    1205    6784
CTETRA     22121       1    6486    1578     341     338
CTETRA     22122       1     665     664    5024    5026
CTETRA     22123       1    1607    2878    5030    1608
CTETRA     22124       1     930    1050    4905    5073
CTETRA     22125       1    3138    4614    3649    4615
CTETRA     22126       1    1563    3070    4575    2033
CTETRA     22127       1    3070    2456    2457    2079
CTETRA     22128       1    1346    1347    1349    1541
CTETRA     22129       1    2841    2454    6115    2842
CTETRA     22130       1    2428    3649    3070    4574
CTETRA     22131       1    2078    2034    2032    2082
CTETRA     22132       1    1282    6267    2455    6266
CTETRA     22133       1    4986    4925    3084    3754
CTETRA     22134       1    6348    6349    3231    4056
CTETRA     22135       1    2512    3021    4056    2071
CTETRA     22136       1    3590     168    4088    2068
CTETRA     22137       1    4984    3754    3619    3950
CTETRA     22138       1     477    4923    3950    4924
CTETRA     22139       1    3835     338     341    1578
CTETRA     22140       1    5104     126    5107     393
CTETRA     22141       1    3917    2887    3375    2889
CTETRA     22142       1    3588    2369    2878    3603
CTETRA     22143       1    1939    2243    2242    3059
CTETRA     22144       1    2878     663     665    3588
CTETRA     22145       1    4123    3734    3725     241
CTETRA     22146       1    2369    3950    2308    4987
CTETRA     22147       1    3067    2307    3950     477
CTETRA     22148       1    1214    3436    1216    3199
CTETRA     22149       1    2369    2878    3603    4991
CTETRA     22150       1    2000     744    6794     133
CTETRA     22151       1     240    4942    4948    4943
CTETRA     22152       1    2396     474     472    3303
CTETRA     22153       1     403    2404    2706     400
CTETRA     22154       1    3682    5994    4132    4055
CTETRA     22155       1    4126    3894    3216    1238
CTETRA     22156       1    3177    4733     741    4765
CTETRA     22157       1     508     401    4768    4769
CTETRA     22158       1     256    2477    2471    1623
CTETRA     22159       1     402    2708    4777    2680
CTETRA     22160       1    3580    2801    6283    6208
CTETRA     22161       1    4029    2804    3580    6284
CTETRA     22162       1    2801    3580    2802    6209
CTETRA     22163       1    3270    2130    3630    2129
CTETRA     22164       1    3436    3438    3216    3214
CTETRA     22165       1    1956    4000    3077    2432
CTETRA     22166       1    3580    4010    6358    6282
CTETRA     22167       1    3580    4010    6282    3578
CTETRA     22168       1    3580    6209    2801    6208
CTETRA     22169       1    3191    2138    6011    2139
CTETRA     22170       1    1028    2113    4543    4538
CTETRA     22171       1    1863    1864    3616    2815
CTETRA     22172       1    3828    4406    2221    4311
CTETRA     22173       1    4060    2052    1443    2113
CTETRA     22174       1    1454    1455    1430    1465
CTETRA     22175       1    2411    3659    2409    3827
CTETRA     22176       1    1444    3299    3260    1028
CTETRA     22177       1    4180    1887    5797    4156
CTETRA     22178       1    2555     640    3289    3703
CTETRA     22179       1    3722    3887    3888    3889
CTETRA     22180       1    5652    4160    4162    2357
CTETRA     22181       1    5873    1887    5874    1002
CTETRA     22182       1    2375    5956    2364    6031
CTETRA     22183       1    3277    5800    4165    5875
CTETRA     22184       1    2539    4205    2669    2668
CTETRA     22185       1    2887    3355    3611    3375
CTETRA     22186       1     593    4186    2118    3411
CTETRA     22187       1    4096    3741    2957    3355
CTETRA     22188       1    3353    3354    3611    3355
CTETRA     22189       1    3355    5127    3375    5133
CTETRA     22190       1    4134    2392    4910    2817
CTETRA     22191       1    3741    2957    5128    5138
CTETRA     22192       1    3354    5127    3355    5120
CTETRA     22193       1    2226    2394    2457    2684
CTETRA     22194       1    6349    3231    4056    2513
CTETRA     22195       1    2989    2987    3084    3507
CTETRA     22196       1    4023    2265    6353    6354
CTETRA     22197       1    5201    2068    5145    2912
CTETRA     22198       1    4149    4090    6033    6032
CTETRA     22199       1    3231    3021    6348    4056
CTETRA     22200       1    2651    1468    2364    1987
CTETRA     22201       1    2449    2839    2243    3225
CTETRA     22202       1    4124    2269    2307     476
CTETRA     22203       1    2491    3200    6569    3201
CTETRA     22204       1    3053    3026    3025    3046
CTETRA     22205       1    1700    2489    2663    2660
CTETRA     22206       1    2375    2364    5956    5957
CTETRA     22207       1    3667    1560    1561    1562
CTETRA     22208       1    3021    2071    6346    6271
CTETRA     22209       1    3739    3225    3990    3021
CTETRA     22210       1    3136    3231    6422    6423
CTETRA     22211       1    2068    3753    3507    5150
CTETRA     22212       1    3136    3231    3990    6422
CTETRA     22213       1    2491    3200    4017    6570
CTETRA     22214       1     934    6576    3575    6501
CTETRA     22215       1    2535    3710    3154    2987
CTETRA     22216       1    4075    6204    3765    3604
CTETRA     22217       1    3601    2577    2579    2265
CTETRA     22218       1    4023    4075    2265    6354
CTETRA     22219       1    4075    6354    6278    2265
CTETRA     22220       1    3583    3924    3584    3627
CTETRA     22221       1    6352    6277    2265    3924
CTETRA     22222       1    2578    2265    6427    6428
CTETRA     22223       1    2265    3924    6427    6352
CTETRA     22224       1    1833    2691    1330    2565
CTETRA     22225       1    4076    5984    5908    5983
CTETRA     22226       1    3145    3640    6479    6478
CTETRA     22227       1     940    5115    3899    5116
CTETRA     22228       1     944    1440    4995    4994
CTETRA     22229       1    2949    1029    1205    3150
CTETRA     22230       1     393    5103    5101    5106
CTETRA     22231       1     969    6551    6552    6476
CTETRA     22232       1     969    6475     933    6550
CTETRA     22233       1    6631    6707    2289    3802
CTETRA     22234       1    3936    4043    3409    2927
CTETRA     22235       1    2477    3539    2471    2015
CTETRA     22236       1    2706    2701    2680     402
CTETRA     22237       1    1468    2375    1467    4090
CTETRA     22238       1    2699    2701    3448    2700
CTETRA     22239       1     741    2712    4765    4764
CTETRA     22240       1    2342    3947    4081    3266
CTETRA     22241       1    3752    2124    4157    3143
CTETRA     22242       1    2701     402    4775    2680
CTETRA     22243       1    3448    2700    4774    4762
CTETRA     22244       1    3278    3185    1440    3757
CTETRA     22245       1    2638    1954    1168    1985
CTETRA     22246       1    5032    5028    1607    3185
CTETRA     22247       1    3278     945    1440    3185
CTETRA     22248       1    3185    3757    5032    5027
CTETRA     22249       1    3380    5029    3185    5028
CTETRA     22250       1    2006    2123    6004    6005
CTETRA     22251       1    3409    6927    4043    6928
CTETRA     22252       1    5908    4076    5983    5907
CTETRA     22253       1    4093    4098    5907    5982
CTETRA     22254       1    4093    4098    5982    5981
CTETRA     22255       1    2802    3580    2800    1423
CTETRA     22256       1    2891    4076    4098    5983
CTETRA     22257       1    5904    2443    5829    5905
CTETRA     22258       1    2125    2126    2726    4298
CTETRA     22259       1    2273    2272    1976    1161
CTETRA     22260       1    4093    3946    5980    5905
CTETRA     22261       1    4093    5980    3946    5981
CTETRA     22262       1    5905    3942    5904    2443
CTETRA     22263       1     746    2126    4744    4759
CTETRA     22264       1    3138    3057    1563    4611
CTETRA     22265       1    3943    3942    3946    4093
CTETRA     22266       1    6312    3173    1826    6311
CTETRA     22267       1    6312    6237     719    3173
CTETRA     22268       1    4019    6237     719    6238
CTETRA     22269       1     710    6539    6463    6538
CTETRA     22270       1    3591     688    1784     595
CTETRA     22271       1     710    6540    6465    6464
CTETRA     22272       1    6312     719    1825    3173
CTETRA     22273       1    1205    6709    3556    6784
CTETRA     22274       1    2695    3167    1885     749
CTETRA     22275       1    1829     766     751     749
CTETRA     22276       1    2043    2044    3213    2957
CTETRA     22277       1     767    2695    1885     749
CTETRA     22278       1    2634    1711    1559    2725
CTETRA     22279       1    3303    3189    3965    3305
CTETRA     22280       1    4162    5727    2357    5728
CTETRA     22281       1    3198    5583    5508    5507
CTETRA     22282       1    2753    3830    2037    3756
CTETRA     22283       1    3110    5432    5433    4530
CTETRA     22284       1    3188    4579    3190    4586
CTETRA     22285       1    2078    2593    2079    2034
CTETRA     22286       1     336     529     335    3558
CTETRA     22287       1    3877    2465    4577    4573
CTETRA     22288       1    3246    3877    2465    3803
CTETRA     22289       1    4092    5664    5663    5739
CTETRA     22290       1    2428    3070    2466    4574
CTETRA     22291       1    3929    3846    3283    3792
CTETRA     22292       1    2346    3045    2345    4070
CTETRA     22293       1    3125    3813    3854    3714
CTETRA     22294       1     814    3220    3845    1670
CTETRA     22295       1    4040    3360    2045    4091
CTETRA     22296       1    2975    1845    2973    1876
CTETRA     22297       1    1057    4366    6969    4363
CTETRA     22298       1    2045    2566    5786    5785
CTETRA     22299       1    3359    2045    5637    5636
CTETRA     22300       1    3844    3845    5858    5857
CTETRA     22301       1    5859    2566    2173    5860
CTETRA     22302       1     598    5255    5248    5247
CTETRA     22303       1    1205    3760    6634    6635
CTETRA     22304       1     597    5255    5251    5248
CTETRA     22305       1    3514    1099    1901    5229
CTETRA     22306       1    6306    6381    6305    1549
CTETRA     22307       1    1997    4893    5042    1998
CTETRA     22308       1    2928    6609    6533    6608
CTETRA     22309       1    3247    3248    1769    3976
CTETRA     22310       1    3177    3966    4746    4765
CTETRA     22311       1    4161    5618    5542    5617
CTETRA     22312       1    2015    2016    2017    4683
CTETRA     22313       1     870    1669     771     867
CTETRA     22314       1    3404    3430    1809    3252
CTETRA     22315       1    3264    2813    3190    3305
CTETRA     22316       1    3662    3661    3705    3704
CTETRA     22317       1    4130    5654    5729    5730
CTETRA     22318       1    1414    1084    1037    1080
CTETRA     22319       1    3187    3305    3190    3189
CTETRA     22320       1    3877    2465    3803    4583
CTETRA     22321       1    2651    1987    2364    2652
CTETRA     22322       1    4149    4189    5883    5958
CTETRA     22323       1    4149    4189    4173    5883
CTETRA     22324       1    1287    1290    2661    2660
CTETRA     22325       1    3451    4149    4173    2651
CTETRA     22326       1    1709    2620    3879    3885
CTETRA     22327       1     216    2670    4191    2931
CTETRA     22328       1    1205    3760    6635    3171
CTETRA     22329       1    2364    5956    4112    5881
CTETRA     22330       1    5957    2364    5956    4112
CTETRA     22331       1    1545    5736    5661    5660
CTETRA     22332       1    1623    2017    2016    2713
CTETRA     22333       1    4043    6929    5841     326
CTETRA     22334       1    2015    2016    4683    4286
CTETRA     22335       1    1191    2937    3017    3018
CTETRA     22336       1    1205    3556    6633    3760
CTETRA     22337       1    3871     496    3966     855
CTETRA     22338       1    3413    5626    5551    5550
CTETRA     22339       1    3752    2124     746    2126
CTETRA     22340       1    5979    3946    6055    3987
CTETRA     22341       1    2013     904     903     906
CTETRA     22342       1    2052    1443    2208    2221
CTETRA     22343       1    3303    3264    3305     472
CTETRA     22344       1    4143    2858    3521    4174
CTETRA     22345       1    3537    2285    3447    3550
CTETRA     22346       1    2356    3169    3447    4051
CTETRA     22347       1    2048    3704    3660    2557
CTETRA     22348       1    3042    4317    3483    3043
CTETRA     22349       1    4152    2053    3740    4493
CTETRA     22350       1    1887    3614    1002    1863
CTETRA     22351       1    3440    3453    1033    3442
CTETRA     22352       1    3347    2357    5652    5727
CTETRA     22353       1    1523    1522    1349     186
CTETRA     22354       1    2966    2465    2428    2466
CTETRA     22355       1    3907    2192    5891    5892
CTETRA     22356       1    3923    3907    5891    3623
CTETRA     22357       1    3623    5966    3923    5965
CTETRA     22358       1    2424    2216    3848    4549
CTETRA     22359       1    4092    5664    5740    5665
CTETRA     22360       1    4092    5738    5739    5663
CTETRA     22361       1    1073    1967    1969    1453
CTETRA     22362       1    5965    3897    5889    3923
CTETRA     22363       1     217     772    2900    1926
CTETRA     22364       1    4146    5002     943    5005
CTETRA     22365       1    1976     858    3638    3645
CTETRA     22366       1     218    6473    2900     217
CTETRA     22367       1     931     943    5002    5004
CTETRA     22368       1     437    3381    2738    2313
CTETRA     22369       1     929    5117    5090     939
CTETRA     22370       1    2032    2027    4618    4576
CTETRA     22371       1    4077    4617    2726    4618
CTETRA     22372       1    2126    3527    2726    4298
CTETRA     22373       1    1583    3139    5895    3342
CTETRA     22374       1    3421    3543    3968    2030
CTETRA     22375       1    3140    2978    2964    3138
CTETRA     22376       1    2726    3527    4299    4298
CTETRA     22377       1    2978    3290    3140    2979
CTETRA     22378       1    2968    3070    1563    2033
CTETRA     22379       1    3732    3421    3653    2030
CTETRA     22380       1    3308    4636    4608    4607
CTETRA     22381       1    2027    4576    2033    4612
CTETRA     22382       1    2296    3914    3453     856
CTETRA     22383       1    3869    6510    6586    6511
CTETRA     22384       1    3283    5187    3280    5188
CTETRA     22385       1    3970    1213    1756    3214
CTETRA     22386       1    3496    4015     412    2804
CTETRA     22387       1    1247    5210    2400    2315
CTETRA     22388       1    4136    3166    3443    3169
CTETRA     22389       1    2389    2948    2873    2250
CTETRA     22390       1    1248    1493    1247    2315
CTETRA     22391       1    1248    1493    3272    1247
CTETRA     22392       1    1247    5210    2315    5237
CTETRA     22393       1    1495    3272    5233    1901
CTETRA     22394       1    1492    3489    1494    1493
CTETRA     22395       1    3092    3098    1478    1336
CTETRA     22396       1    1492    1493    1248    3489
CTETRA     22397       1    3489    1494    5234    4896
CTETRA     22398       1    1493    1494    1495    5234
CTETRA     22399       1    1494    4896    2154    5110
CTETRA     22400       1    2726    3527    2482    2032
CTETRA     22401       1    3653    3968    2207    3343
CTETRA     22402       1    3853    2192    3855    1150
CTETRA     22403       1    3892    3343    3653    2207
CTETRA     22404       1    2673    1080    2088    1084
CTETRA     22405       1    2008    4617    2125    4077
CTETRA     22406       1    2009    3290    2210    4101
CTETRA     22407       1    3138    3058    4615    3649
CTETRA     22408       1    2810    5525    5601    5526
CTETRA     22409       1    2030    3350    5898    5897
CTETRA     22410       1    4155    2108     186    1523
CTETRA     22411       1    2007    2027    2968    3057
CTETRA     22412       1    3572    3150    2951    3065
CTETRA     22413       1    2007    3290    4101    3057
CTETRA     22414       1    3057    1563    4612    2027
CTETRA     22415       1    2831    3943    3947    3266
CTETRA     22416       1    3467     478    4932    4937
CTETRA     22417       1    5935    6010    3220    2139
CTETRA     22418       1    2269    4922    2307    4930
CTETRA     22419       1    3449    3866    4059    5022
CTETRA     22420       1    4990    2308    5025     665
CTETRA     22421       1    2307    3950    4923    4987
CTETRA     22422       1    2307    4922    2308    4987
CTETRA     22423       1    2308    2878    4991    5025
CTETRA     22424       1    5918    5843    4055    2553
CTETRA     22425       1    2064    5622    5698    5623
CTETRA     22426       1    4113    5621    5697    5622
CTETRA     22427       1     889    1236    3682    4132
CTETRA     22428       1    4034    5848    2879    5849
CTETRA     22429       1    5775    1171    1804    5700
CTETRA     22430       1    1768    3976    2926    1788
CTETRA     22431       1    2874    2016    4287    2204
CTETRA     22432       1    2015    2874    2016    4286
CTETRA     22433       1    2874    4460    2204    4287
CTETRA     22434       1    3415    3413    3414    2172
CTETRA     22435       1    3921    4322    2098    4424
CTETRA     22436       1    3244     107    2076    4067
CTETRA     22437       1     822    3631     801     798
CTETRA     22438       1    3863    5786    2566    5861
CTETRA     22439       1    2098    3806    3819    4321
CTETRA     22440       1    4141    5497    5422    5421
CTETRA     22441       1    2061    3827    4411    2412
CTETRA     22442       1    3283    3854    5182    5188
CTETRA     22443       1    3283    3392    5181    5165
CTETRA     22444       1    3332    6660    6584    6659
CTETRA     22445       1    2758    4028    4035    4029
CTETRA     22446       1    3631    3738    2566    4036
CTETRA     22447       1    3175    2061    4320    4411
CTETRA     22448       1    3175    4319    2412    4411
CTETRA     22449       1    2061    3827    3499    4421
CTETRA     22450       1    3175    3898    2930    4394
CTETRA     22451       1    3806    3819    4321    4425
CTETRA     22452       1    4183    5569    5645    5570
CTETRA     22453       1    2061    3499    4425    4421
CTETRA     22454       1    3179    3191    2139    2138
CTETRA     22455       1    3539    2015    2017    4677
CTETRA     22456       1    1624    2713    2016    2393
CTETRA     22457       1    2477    2017    2713    2700
CTETRA     22458       1    1624    2393    2016    2204
CTETRA     22459       1    2015    4683    2017    4677
CTETRA     22460       1    3644    4673    4680    4679
CTETRA     22461       1     496    3966     855    4763
CTETRA     22462       1    3005    6445    6369    6444
CTETRA     22463       1    2321    5159    2256    2323
CTETRA     22464       1    2322    5158    3654    5157
CTETRA     22465       1    2044    3899    5129    2957
CTETRA     22466       1     967     940    5115    2044
CTETRA     22467       1     901    5089    5088    5102
CTETRA     22468       1    2286    4169    4170    3895
CTETRA     22469       1    1107    2641    1108    1635
CTETRA     22470       1    2815    4156    4170    5871
CTETRA     22471       1    2815    4169    5871    4170
CTETRA     22472       1    4169    4170    3895    5945
CTETRA     22473       1    1388    2209    2222    2332
CTETRA     22474       1    2222    2410    4310    2221
CTETRA     22475       1    3862    3817    4091    5789
CTETRA     22476       1    2435    4170    3538    3895
CTETRA     22477       1    3735    2053    4470    3222
CTETRA     22478       1    4406    4407    2411    2410
CTETRA     22479       1    3796    3740    2222    4472
CTETRA     22480       1    3631    3738    3220    2566
CTETRA     22481       1    2319    5159    2321    5215
CTETRA     22482       1    3442    3443    6091    3440
CTETRA     22483       1    2418    3775    2419    3253
CTETRA     22484       1    2401    6594    6518    6593
CTETRA     22485       1    3935    2255    3846    3792
CTETRA     22486       1    1493    5237    3272    1247
CTETRA     22487       1    3035    2873    3832    3294
CTETRA     22488       1    3681    1247    5236    5240
CTETRA     22489       1    1094    3681    5236    5231
CTETRA     22490       1    1900    2461    1495    1901
CTETRA     22491       1    4002    5179    2911    5180
CTETRA     22492       1    3273    3582    3767    3765
CTETRA     22493       1    2690    2764    1978    2907
CTETRA     22494       1    6363    4015    6287     412
CTETRA     22495       1    6359    4035    4028    4029
CTETRA     22496       1     656     158    3197    4005
CTETRA     22497       1    2255    3792    5167    5177
CTETRA     22498       1      99    6513    6588    6589
CTETRA     22499       1     158    3379     656    2896
CTETRA     22500       1    1367    2323    3839    3813
CTETRA     22501       1    3839    3854    3813    5183
CTETRA     22502       1    3792    5182    3283    3854
CTETRA     22503       1    3935    2255    3792    3839
CTETRA     22504       1    1621    1778    6365    1633
CTETRA     22505       1    3599    3180    4181    3621
CTETRA     22506       1    3792    5182    3854    5167
CTETRA     22507       1     100    6589    6664    6665
CTETRA     22508       1    3432    3283    3392    3280
CTETRA     22509       1    3593    2551     818    3499
CTETRA     22510       1    3921    2074    4323    4424
CTETRA     22511       1    3694    3842    3890    3951
CTETRA     22512       1    3176     104     106     415
CTETRA     22513       1    3181    1806    3243    3249
CTETRA     22514       1    2205    4456    2206    2204
CTETRA     22515       1    3094    2151    2493    3093
CTETRA     22516       1    2098    4427    3497    4424
CTETRA     22517       1    3724    3734    3725    3379
CTETRA     22518       1    2566    4036    3863    2139
CTETRA     22519       1    4073    3497    3928    2168
CTETRA     22520       1     586    3329     583    4073
CTETRA     22521       1    5701    3413    1173    1171
CTETRA     22522       1     354    3223    5076    5075
CTETRA     22523       1     929     940    1390    5117
CTETRA     22524       1     967    2044    5115    5114
CTETRA     22525       1     942    2060     939    1050
CTETRA     22526       1    2996    2385    2234    2154
CTETRA     22527       1    4053    1475    6454    6453
CTETRA     22528       1    3832    2948    3035    1549
CTETRA     22529       1    1468    1985    4149    1469
CTETRA     22530       1    2142    4698    4692    4693
CTETRA     22531       1    3522    4297    2125    4624
CTETRA     22532       1     892     509    4758    4757
CTETRA     22533       1    2402     508     401     509
CTETRA     22534       1     745    2126    4759    3527
CTETRA     22535       1    3766    2044    5114    5121
CTETRA     22536       1    1039    3076    6323    6398
CTETRA     22537       1    2068    2912    5201    2069
CTETRA     22538       1    2002    3468    5146    6849
CTETRA     22539       1    6434    6359    4035    4028
CTETRA     22540       1    2805    3749    3748    3736
CTETRA     22541       1    4195    3734    3725    3724
CTETRA     22542       1    4024    6356    4010    4020
CTETRA     22543       1    2577    2562     934    6501
CTETRA     22544       1    3791    3341    3239    4196
CTETRA     22545       1    6429    3162    2578    4023
CTETRA     22546       1    4023    2265    6428    6353
CTETRA     22547       1    3514    5235    1731    5228
CTETRA     22548       1    1089    4148    6382    6383
CTETRA     22549       1    4148    6384    6308    6383
CTETRA     22550       1    6309    6384    6308    4148
CTETRA     22551       1    3832    1550    1548    1549
CTETRA     22552       1    4166    3834       5     657
CTETRA     22553       1    4163     811    4213    3900
CTETRA     22554       1    4207    4148    6309    4197
CTETRA     22555       1    1492    3673    1731    1494
CTETRA     22556       1    4011    6306    1548    6231
CTETRA     22557       1    3453    3442    6243    1033
CTETRA     22558       1    3574    3573    6578    6653
CTETRA     22559       1    6656    3658    6732    6731
CTETRA     22560       1    4047    6432    3135    6507
CTETRA     22561       1    4028    4010    6432    6357
CTETRA     22562       1    4028    4010    6357    6358
CTETRA     22563       1     208      99    6514    6513
CTETRA     22564       1    1979    2575    3135    3162
CTETRA     22565       1    3332    6584    6583    6659
CTETRA     22566       1    2575    1957    6655    2438
CTETRA     22567       1    3382     713    5224    5225
CTETRA     22568       1    1246    1094    3272    1901
CTETRA     22569       1    3035    2925    1550    2389
CTETRA     22570       1    2250    6377    1476    6378
CTETRA     22571       1    4007    3382     713    2632
CTETRA     22572       1    1493    3272    5237    5233
CTETRA     22573       1    4053    1476    6453    2389
CTETRA     22574       1    1476    1487    6376    6377
CTETRA     22575       1    3681    5240    2162    1247
CTETRA     22576       1    1246    3272    3681    1247
CTETRA     22577       1    3917    2889    3375    2385
CTETRA     22578       1    2005    2220    3516    2599
CTETRA     22579       1    3952    1476    3799    1487
CTETRA     22580       1    2558    2559    1342    1267
CTETRA     22581       1    3681    3272    5236    1247
CTETRA     22582       1    1094    3272    1901    5230
CTETRA     22583       1    3035    1550    1549    2389
CTETRA     22584       1    2482    2007    4077    2027
CTETRA     22585       1     325    4043    2927    5841
CTETRA     22586       1    2398     910     163    4720
CTETRA     22587       1    3448    2701    4774    2700
CTETRA     22588       1    4717     305    3444    4718
CTETRA     22589       1    3674     607     640     642
CTETRA     22590       1    3539    2712    4764    4670
CTETRA     22591       1    2712    2700    4762    4761
CTETRA     22592       1    2487    3698    3834     657
CTETRA     22593       1    3460    4043    5840    5915
CTETRA     22594       1     873    5613     918    5612
CTETRA     22595       1    2712    3448    4762    2700
CTETRA     22596       1    3448    4774    2701    4766
CTETRA     22597       1     299    4767     401    4769
CTETRA     22598       1    4048    3981    2926    3976
CTETRA     22599       1    3539    2712    4670    2017
CTETRA     22600       1    3217    4113    5622    5621
CTETRA     22601       1    1228     610     495     298
CTETRA     22602       1    4119    4139    5769    5844
CTETRA     22603       1    2684    2158    6953     795
CTETRA     22604       1    3674    2462    3762     794
CTETRA     22605       1    3477    2581    4285    4284
CTETRA     22606       1    4011    6305    4012    1549
CTETRA     22607       1    2553    2927    2893    5917
CTETRA     22608       1    1832    1955    2267    1266
CTETRA     22609       1    2711    3966    2712    3448
CTETRA     22610       1     496     855    4747    4763
CTETRA     22611       1    1242     325     326    4043
CTETRA     22612       1    4011    1549    6306    6305
CTETRA     22613       1    2896    2230    3668    4124
CTETRA     22614       1    1766    1768    3976    1769
CTETRA     22615       1    2934    3843     106    3176
CTETRA     22616       1    3477    4285    2015    4677
CTETRA     22617       1    3539    3477    4677    4671
CTETRA     22618       1    3809    4732     741    4733
CTETRA     22619       1    3340    2065    4034    5773
CTETRA     22620       1    2581    2015    4286    2874
CTETRA     22621       1    4139    3798    5771    5770
CTETRA     22622       1    2643    3607    1517    2644
CTETRA     22623       1    4095    3463    2543    2474
CTETRA     22624       1    3907    3623    3923    1153
CTETRA     22625       1    1709    1711    2634    2725
CTETRA     22626       1    2424    4550    2217    4466
CTETRA     22627       1    1717    2631    1715    2424
CTETRA     22628       1    3860    1247    2400    2315
CTETRA     22629       1    3857    1765    2686    3219
CTETRA     22630       1    3061    2948    4014    3105
CTETRA     22631       1    3092    3019    2162    1478
CTETRA     22632       1    3953    1655    1684    1687
CTETRA     22633       1    1477    2162    5242    1478
CTETRA     22634       1    3681    5239    2162    5240
CTETRA     22635       1    2162    5211    2400    5240
CTETRA     22636       1    2032    2027    4576    2033
CTETRA     22637       1    2032    2082    2034    4300
CTETRA     22638       1    2032    2726    3527    4299
CTETRA     22639       1    2482    2726    2032    2027
CTETRA     22640       1    2609    2369    3619    3950
CTETRA     22641       1    2369    4991    2308    2878
CTETRA     22642       1    2369    3603    2370    4992
CTETRA     22643       1    3027    3026    3025    3053
CTETRA     22644       1     298     855    4770    4747
CTETRA     22645       1    2711    3963    2712    3966
CTETRA     22646       1     297    4769     508    4749
CTETRA     22647       1     508    4768     509    4757
CTETRA     22648       1    3943    4093    2443    3942
CTETRA     22649       1    2648    2647    2101    1344
CTETRA     22650       1     745     509     403    4771
CTETRA     22651       1    2370    3770    3054    3053
CTETRA     22652       1    3840     977     995    3866
CTETRA     22653       1    6231    6156    1178    4011
CTETRA     22654       1    3727     228     666    2306
CTETRA     22655       1    3239    4263    2105    4256
CTETRA     22656       1    2519    3158    2520    2522
CTETRA     22657       1    3000     945    5029    4996
CTETRA     22658       1    2896    3022    3667    3197
CTETRA     22659       1    4995     944    5004     943
CTETRA     22660       1    3115    3172    6326    6327
CTETRA     22661       1    1060    1037    3099    1061
CTETRA     22662       1    4158    6326    3172    6251
CTETRA     22663       1    3118    3640    6478    6553
CTETRA     22664       1    2029     353    3142     354
CTETRA     22665       1    4158    3076    6324    3745
CTETRA     22666       1    3115    1497    6327    6328
CTETRA     22667       1    3114    6328    6404    3116
CTETRA     22668       1    6706    2239    6781    6705
CTETRA     22669       1    2931     217    2899     216
CTETRA     22670       1    1006    3920    2337    3137
CTETRA     22671       1    3566     905     976     995
CTETRA     22672       1     217    2900     772     933
CTETRA     22673       1    4158    3076    3745    3101
CTETRA     22674       1     940     929     942     939
CTETRA     22675       1     740    6240     765    6315
CTETRA     22676       1    3076    6400    6324    6399
CTETRA     22677       1    6545    3426    6469    6470
CTETRA     22678       1    2359     943     931     944
CTETRA     22679       1    3000    3380    5020    5029
CTETRA     22680       1    4059    3000    3380    5020
CTETRA     22681       1    3759    4904    4903    5076
CTETRA     22682       1    3146    2216    2110    2109
CTETRA     22683       1    3349    2049    3543    3350
CTETRA     22684       1    2968    3070    3649    1563
CTETRA     22685       1    2009    3810    2008    3265
CTETRA     22686       1    3337    4554    4622    4621
CTETRA     22687       1    3784    3785     791    3855
CTETRA     22688       1    1521    3388    1524    1523
CTETRA     22689       1    3543    5824    3968    5823
CTETRA     22690       1    5898    2030    3543    3350
CTETRA     22691       1    5963    6038    2905    3897
CTETRA     22692       1    2905    3897    5888    5963
CTETRA     22693       1     158    4166    3734    4195
CTETRA     22694       1    1932    2841    2454    1945
CTETRA     22695       1    2993    6038    2840    3897
CTETRA     22696       1    3569    3450    2178    2793
CTETRA     22697       1    2651    4149    4173    4112
CTETRA     22698       1    3605    5885    4189    5960
CTETRA     22699       1    1932    2454    2842    1945
CTETRA     22700       1    2358     903     962     959
CTETRA     22701       1    1937    3478    2242    2826
CTETRA     22702       1    1030    1577    2284    2283
CTETRA     22703       1    2060    1050     901     939
CTETRA     22704       1     921     196     193     195
CTETRA     22705       1    3878     943    4996    5005
CTETRA     22706       1     947     948     942     946
CTETRA     22707       1    3880    2899     933    3881
CTETRA     22708       1     929     944    5004    4907
CTETRA     22709       1    3216    2249    2150    3285
CTETRA     22710       1    3921    4424    2098    3497
CTETRA     22711       1     158    3734    4166    3379
CTETRA     22712       1    2165    2166    4431    3497
CTETRA     22713       1    2011    4447    1797    4453
CTETRA     22714       1    2166    3497    4430    4431
CTETRA     22715       1    2011    2166    4441    4453
CTETRA     22716       1    2011    3161    4447    4442
CTETRA     22717       1    1742    2196    3609    2215
CTETRA     22718       1    3222    4153    4537    4552
CTETRA     22719       1    4150    3808    3494    3909
CTETRA     22720       1     474     471    2406     473
CTETRA     22721       1    3864    2218    4153    4551
CTETRA     22722       1    1008    4364    5403    5404
CTETRA     22723       1     368    5122    3354    5120
CTETRA     22724       1    4041    3378    4177    2933
CTETRA     22725       1    3504    6460    6384    6459
CTETRA     22726       1    1430    1465    1433    1454
CTETRA     22727       1    2381    2380    2903    2363
CTETRA     22728       1    2585    3673    2234    2929
CTETRA     22729       1    1180    5243    1997    4893
CTETRA     22730       1    2301    2929    1731    3673
CTETRA     22731       1    3354    3611    5127    5119
CTETRA     22732       1    3134    5152    3473    3468
CTETRA     22733       1    3084    3507    2987    3753
CTETRA     22734       1    1467    2600    6183    6182
CTETRA     22735       1    2458    2796    3708    2462
CTETRA     22736       1    3693    4932    3994    4925
CTETRA     22737       1    2116    2117    3136    6498
CTETRA     22738       1    1154    1934    1155    2391
CTETRA     22739       1    3084    3994    3066    3754
CTETRA     22740       1    4095    2474    2038    3788
CTETRA     22741       1    5881    5806    5882    4112
CTETRA     22742       1    4049    4162    5728    4130
CTETRA     22743       1    3864    4552    3222    4469
CTETRA     22744       1    1360    1544    3586    3587
CTETRA     22745       1    3848    3188    2218    4586
CTETRA     22746       1    2652    4112    3885    4111
CTETRA     22747       1    1942    1422    1421    2442
CTETRA     22748       1    4153    4592    2813    4537
CTETRA     22749       1    3601    3144    3824    2579
CTETRA     22750       1    2306    4990    2308    4922
CTETRA     22751       1     786    4701    4700    4697
CTETRA     22752       1     745    3527    3699    2126
CTETRA     22753       1    2403     509     401     403
CTETRA     22754       1    3170     405    5836    5835
CTETRA     22755       1    2101     172    3959    2225
CTETRA     22756       1    2087     953    5827    2086
CTETRA     22757       1    2403     892     746    3751
CTETRA     22758       1    2087    2443    5829    5904
CTETRA     22759       1    3309    4017    6572    3136
CTETRA     22760       1     476    2307    4923    4930
CTETRA     22761       1    3467     478    3693    4932
CTETRA     22762       1    3066     478     477    3994
CTETRA     22763       1     476    4923    2307     477
CTETRA     22764       1    3876    3710    3753    3468
CTETRA     22765       1    2224    2279    6299    6300
CTETRA     22766       1    2223    1487    3919    1488
CTETRA     22767       1    3931     597    3592    1727
CTETRA     22768       1    2224    2939    6374    6299
CTETRA     22769       1    1336    2162    1477    1478
CTETRA     22770       1    3952    3127    6450    6449
CTETRA     22771       1    3952    6450     712    6451
CTETRA     22772       1    6452    1476    6527    6451
CTETRA     22773       1    1094    1901    5245    5230
CTETRA     22774       1    2192    3720    3853    2191
CTETRA     22775       1    3344    5597    3632    5522
CTETRA     22776       1    2030    5746    5822    5747
CTETRA     22777       1    2192    3387    5817    5892
CTETRA     22778       1    4572    2428    2084    3877
CTETRA     22779       1    2961    3058    2428    2084
CTETRA     22780       1    2084    4629    3058    4604
CTETRA     22781       1    3125    3792    3854    3839
CTETRA     22782       1    4035    4015    6361    6436
CTETRA     22783       1    3811    6917    6666    6918
CTETRA     22784       1    3929    3283    5165    3392
CTETRA     22785       1    3848    3188    4586    4584
CTETRA     22786       1    2217    3864    4551    2218
CTETRA     22787       1    3109    4510    5435    3113
CTETRA     22788       1    3609    4632    3608    4570
CTETRA     22789       1    2218    4586    3190    4580
CTETRA     22790       1    3930    5661     455    5585
CTETRA     22791       1    2284    6409    2337    6484
CTETRA     22792       1    3064     331    6335    6334
CTETRA     22793       1    3841    4059    3380     664
CTETRA     22794       1    1006    6482    2337    6407
CTETRA     22795       1    2014    2090    3118     932
CTETRA     22796       1    3937    3377    2941    2302
CTETRA     22797       1    3064     330    6334    2716
CTETRA     22798       1    1432    1433    6103    6178
CTETRA     22799       1    3711    3000     945    3380
CTETRA     22800       1    2359     945     943     944
CTETRA     22801       1    3565    3639    3807    1005
CTETRA     22802       1    2951    3396    4952    2189
CTETRA     22803       1    4059    3380    5023    5020
CTETRA     22804       1     666    5021     664    5026
CTETRA     22805       1     665     666     664    5026
CTETRA     22806       1     783    2141    4085     786
CTETRA     22807       1    4212    3925    4042     612
CTETRA     22808       1    3170     404    5760    3390
CTETRA     22809       1    2759     783    2096    3750
CTETRA     22810       1    2142    4698    4693    4701
CTETRA     22811       1    2309    3750    3752    4157
CTETRA     22812       1    1331     649    5609    2253
CTETRA     22813       1    2087    2085    5828    5829
CTETRA     22814       1    3424    3423    2883    3528
CTETRA     22815       1     786    4698    4701    4697
CTETRA     22816       1    5753    2085    5828    2086
CTETRA     22817       1    6418    1283    2374     645
CTETRA     22818       1    2452    3467    3693    4935
CTETRA     22819       1     340    6339    2160    4057
CTETRA     22820       1    1635    1637    3027     247
CTETRA     22821       1     664    2878     663     665
CTETRA     22822       1    3046    2870    2719    3603
CTETRA     22823       1    3684    3950    2307    2308
CTETRA     22824       1    2189    3449     460    4919
CTETRA     22825       1    1927    2509    2371    2582
CTETRA     22826       1    3786    6416    2159     645
CTETRA     22827       1    4122     340    2160    4057
CTETRA     22828       1    3058    4615    3649    4613
CTETRA     22829       1    2192    3923    5890    3934
CTETRA     22830       1    3787    3139    3342    5894
CTETRA     22831       1    3342    3139    5895    5894
CTETRA     22832       1    3260    3132    4153    3222
CTETRA     22833       1    5893     791    3387    5894
CTETRA     22834       1    3290    3057    4611    4620
CTETRA     22835       1    3352    5442    5443    4663
CTETRA     22836       1    2234    2929    5091    5092
CTETRA     22837       1    3505    4197    3536    4148
CTETRA     22838       1    6462     725    6537    6461
CTETRA     22839       1    6464     710    6389    6465
CTETRA     22840       1    3624    3541    3583    1694
CTETRA     22841       1    3859    1248    2315    3489
CTETRA     22842       1    4207    6310    2228    6311
CTETRA     22843       1    2411    2221    1388    3828
CTETRA     22844       1    3043    4405    2410    4318
CTETRA     22845       1    4187    2198    3042    3043
CTETRA     22846       1    2606    3538    5868    5867
CTETRA     22847       1    4152    3228    4493    3858
CTETRA     22848       1    1009    3538    2435    4170
CTETRA     22849       1    4318    3047    4407    2410
CTETRA     22850       1    2222    4310    2410    4405
CTETRA     22851       1    4477    4308    3523    3524
CTETRA     22852       1    4495    2053    3228    4493
CTETRA     22853       1    4011    2571    6155    6156
CTETRA     22854       1    2253    5533    5532    5608
CTETRA     22855       1    4081    2304    2443    5831
CTETRA     22856       1    5906    2443    4081    4093
CTETRA     22857       1    2443    5905    4093    5906
CTETRA     22858       1    3080    2061    3499    3819
CTETRA     22859       1    2930    3047    4319    4393
CTETRA     22860       1    3490    3819    3499    2168
CTETRA     22861       1    3405    1794    2046    3206
CTETRA     22862       1    2661    3697    3487    3557
CTETRA     22863       1    3734     242    3668    3022
CTETRA     22864       1     340    2160    6339    6414
CTETRA     22865       1    3697     989    6414    6413
CTETRA     22866       1    6265    6190    6266    1282
CTETRA     22867       1    3990    3225    6420    6421
CTETRA     22868       1    3990    6346    3021    3225
CTETRA     22869       1    3834    1445    3835    2176
CTETRA     22870       1    3084    2987    3710    3753
CTETRA     22871       1    3201    6642    6643    6567
CTETRA     22872       1    6419    3225    6344    6420
CTETRA     22873       1    3021    6422    6346    3990
CTETRA     22874       1    6347    3021    6422    6346
CTETRA     22875       1    4005    2350    3201    3197
CTETRA     22876       1    3468    4883    3753    5151
CTETRA     22877       1    3231    3990    6422    3021
CTETRA     22878       1    2512    3021    3231    4056
CTETRA     22879       1    3526    6124    4061    4052
CTETRA     22880       1    3154    3710    3693    3994
CTETRA     22881       1    3876    3710    3468    3473
CTETRA     22882       1    3136    2117    3231    6498
CTETRA     22883       1    2578    6428    4023    2265
CTETRA     22884       1    1337    1338    1343    2558
CTETRA     22885       1    2128    3844    5782    5781
CTETRA     22886       1    3325    5781    3670    3844
CTETRA     22887       1    3670    2123    5930    3949
CTETRA     22888       1    2548    3541    3627    3540
CTETRA     22889       1     104     106     415    4067
CTETRA     22890       1    3842    4335    3951    4347
CTETRA     22891       1    2128    5781    5705    3325
CTETRA     22892       1    1776    4071    1808    1795
CTETRA     22893       1    1477    3681    5239    2162
CTETRA     22894       1    1336    3681    1477    2162
CTETRA     22895       1    3395     712    6526    6527
CTETRA     22896       1    1302    3681    5231    5239
CTETRA     22897       1    1032    6599    3009    3127
CTETRA     22898       1    1246    1094    3681    3272
CTETRA     22899       1    1094    5236    3272    5230
CTETRA     22900       1    4469    3864    3830    3222
CTETRA     22901       1    3221    5877    3888    5802
CTETRA     22902       1    2735    3367    3348    2211
CTETRA     22903       1    1717    3847    3132    3864
CTETRA     22904       1    3756    4467    3864    4468
CTETRA     22905       1    4058    2689    4100    5952
CTETRA     22906       1    3848    4586    2218    4550
CTETRA     22907       1    3848    4584    2109    3188
CTETRA     22908       1    3864    4551    4153    4552
CTETRA     22909       1    3737    2173    3844    3845
CTETRA     22910       1    4003    4107    2976    4040
CTETRA     22911       1    3825    5560    5485    5484
CTETRA     22912       1    3175    3806    4320    2061
CTETRA     22913       1    3320    4401    3286    4404
CTETRA     22914       1    3316    5562    5638    5563
CTETRA     22915       1    3948    2074    4323    3921
CTETRA     22916       1    3047    2412    4319    4407
CTETRA     22917       1     637    6759    6758    4889
CTETRA     22918       1    6542     722    6541     723
CTETRA     22919       1     368    3766    5123    3213
CTETRA     22920       1    4177     369     368    3766
CTETRA     22921       1      55    5104    5097    5096
CTETRA     22922       1    6769    2855     909    5109
CTETRA     22923       1    3875    3610    5119    5113
CTETRA     22924       1    1715    2218    3848    3188
CTETRA     22925       1    2727    2631    2735    2736
CTETRA     22926       1    1717    3864    2753    2217
CTETRA     22927       1    3788    4507    2037    4502
CTETRA     22928       1    2192    3934    3853    3923
CTETRA     22929       1    2428    3649    4574    4613
CTETRA     22930       1    3388    5592    5668    5593
CTETRA     22931       1    5590    5591    2177    3893
CTETRA     22932       1     912    1545    1544    2644
CTETRA     22933       1    1098    1365    1043    1706
CTETRA     22934       1    1057    2076    4363    3244
CTETRA     22935       1    1593    3460    1594    5765
CTETRA     22936       1    2785    3820    3863    2604
CTETRA     22937       1    5939    2604    5863    3820
CTETRA     22938       1    4012    3677    6155    4011
CTETRA     22939       1    1693    1694    1695    2548
CTETRA     22940       1    1887    5723    5799    4147
CTETRA     22941       1    2548    3583    3584    3627
CTETRA     22942       1    2815    1887    4156    5797
CTETRA     22943       1    2815    5797    4156    5872
CTETRA     22944       1    2815    4156    5871    5872
CTETRA     22945       1    2103     970    5427    2104
CTETRA     22946       1    2209    3796    3740    2222
CTETRA     22947       1    4156    5795    4170    5870
CTETRA     22948       1    4156    4170    5871    5870
CTETRA     22949       1    2745    5655    4130    5730
CTETRA     22950       1    2208    2052    2053    1028
CTETRA     22951       1    4003    3359    3629    2045
CTETRA     22952       1    1388    2222    2221    2410
CTETRA     22953       1    4000    4209    2958    2437
CTETRA     22954       1    4011    3677    6155    2571
CTETRA     22955       1    6660    4008    3869    6661
CTETRA     22956       1    3811    2985    6916    6917
CTETRA     22957       1    3420    3749    3621    6846
CTETRA     22958       1    2775    2787    4035    4015
CTETRA     22959       1    4074    2806    2911    2912
CTETRA     22960       1    2753    3830    3756    3864
CTETRA     22961       1    3494    2564    2475    3334
CTETRA     22962       1    1889    1887    4180    4156
CTETRA     22963       1    3836    5495    5571    5496
CTETRA     22964       1    2222    2221    4310    4472
CTETRA     22965       1    2904    2035    2036    4063
CTETRA     22966       1    3221    3888    1854    2357
CTETRA     22967       1    1889    4156    2815    1887
CTETRA     22968       1    2052    3740    4542    2221
CTETRA     22969       1    2053    3740    4493    4471
CTETRA     22970       1    3107    3333    3563    3530
CTETRA     22971       1    1864    2815    4156    4170
CTETRA     22972       1    3178    4019    4018    3173
CTETRA     22973       1    2844    3526    2544    3437
CTETRA     22974       1    3824    4075    2265    4023
CTETRA     22975       1    4151    4023    4024    4020
CTETRA     22976       1    2577    6501    3575    6502
CTETRA     22977       1    6574    2117    6575    2114
CTETRA     22978       1    3876     917    3468    3753
CTETRA     22979       1    2552    3990    3136    3231
CTETRA     22980       1    3421    3543    2030    3350
CTETRA     22981       1    4295    3265    3973    3339
CTETRA     22982       1    2482    2027    4077    2726
CTETRA     22983       1    4077    4618    2726    2027
CTETRA     22984       1    3057    2027    4612    4616
CTETRA     22985       1    2007    4101    4077    3057
CTETRA     22986       1    2081    3532    3259    3707
CTETRA     22987       1    3057    4077    2027    4616
CTETRA     22988       1    2125    4077    4617    2726
CTETRA     22989       1    4077    2027    4616    4618
CTETRA     22990       1    3455    3892    2187    3632
CTETRA     22991       1    3514    1495    5229    1901
CTETRA     22992       1    1731    1495    1494    5235
CTETRA     22993       1    3503    1089    3504    4148
CTETRA     22994       1    1495    5229    1901    5233
CTETRA     22995       1    1495    5234    1494    5235
CTETRA     22996       1    4208     688    1784    3591
CTETRA     22997       1    1731    3673    4895    1494
CTETRA     22998       1    3265    2008    4622    4624
CTETRA     22999       1    5820    3342    5745    3343
CTETRA     23000       1    2008    4617    4077    4623
CTETRA     23001       1    3484    3653    3892    4110
CTETRA     23002       1    4359    1008    4365    4364
CTETRA     23003       1    2718    1533    3972    2979
CTETRA     23004       1    3432    4106    3392    3929
CTETRA     23005       1    3577    4024    4010    4020
CTETRA     23006       1    2763    3331    2758    4028
CTETRA     23007       1    3392    2911    2146    5180
CTETRA     23008       1    3749    2912    2911    5185
CTETRA     23009       1    4181    3599    3621    4002
CTETRA     23010       1    4002    2911    3392    5180
CTETRA     23011       1    2195    3134    6850    3473
CTETRA     23012       1    3635    2207    3518    3075
CTETRA     23013       1    4297    2124    4695    3522
CTETRA     23014       1    3773     892     891     755
CTETRA     23015       1    2010    4077    2125    2726
CTETRA     23016       1    2259    4206    1331    4078
CTETRA     23017       1    1534    4086    3456    3972
CTETRA     23018       1    3338    4558    4554    4555
CTETRA     23019       1    2010    2008    2125    4077
CTETRA     23020       1    2125    2726    4617    4298
CTETRA     23021       1    4297    4745    2124    2125
CTETRA     23022       1    2125    4745    2126    4298
CTETRA     23023       1    3161    2202    4443    2741
CTETRA     23024       1    3633    2471    3539    3477
CTETRA     23025       1    2169    5629    3242    5704
CTETRA     23026       1    5548    5623    3215    2172
CTETRA     23027       1    3276    4448    3852    3161
CTETRA     23028       1    4133    4054    1186    4119
CTETRA     23029       1    4038    2741    2874    2581
CTETRA     23030       1    2262    2172    5475    5474
CTETRA     23031       1    3539     741    4764    2712
CTETRA     23032       1    3151    2202    2581    4284
CTETRA     23033       1    3430    3405    3439    3406
CTETRA     23034       1    1238    4182    3214    3977
CTETRA     23035       1    1760    4119    5694    5693
CTETRA     23036       1    2471    2015    3477    2581
CTETRA     23037       1    3151    4678    3477    4672
CTETRA     23038       1    1623    2581    2874    2015
CTETRA     23039       1    2065    3798    4139    1185
CTETRA     23040       1    4139    2431    5770    5771
CTETRA     23041       1    3798    5920    2739    5921
CTETRA     23042       1    4034    3721    5847    5772
CTETRA     23043       1    2065    4034    5773    5772
CTETRA     23044       1    3217    5546    5621    5622
CTETRA     23045       1    4038    2874    2741    2205
CTETRA     23046       1    1516    1998    1999    1515
CTETRA     23047       1    1999    1998    1180    1997
CTETRA     23048       1    1534    3632    4086    1535
CTETRA     23049       1    1502     667    6459    3504
CTETRA     23050       1    6758    6683    6759    2197
CTETRA     23051       1    4116    6460    1502    6535
CTETRA     23052       1    6381    1548    6382    1089
CTETRA     23053       1    1089    6381    1550    6456
CTETRA     23054       1     667    6383    6459    3504
CTETRA     23055       1    3504    1502    3510    4116
CTETRA     23056       1    1534    3306    3632    1535
CTETRA     23057       1    1089    6383    3504    4148
CTETRA     23058       1    1999    1782    1996    1997
CTETRA     23059       1    1088    1089    1550    6456
CTETRA     23060       1    2381    6764    2380    6689
CTETRA     23061       1    1548    1089    3536    4148
CTETRA     23062       1    2984    3653    3484    4110
CTETRA     23063       1    5228    1099    1997    3514
CTETRA     23064       1    6460    1502    3504    4116
CTETRA     23065       1    2929    1731    3673    4894
CTETRA     23066       1    3290    2007    2009    2978
CTETRA     23067       1    2007    3057    4077    2027
CTETRA     23068       1    4101    3057    4616    4077
CTETRA     23069       1    5825    3075    2049    5824
CTETRA     23070       1    5744    3388    3730    2020
CTETRA     23071       1    3337    4554    4621    4555
CTETRA     23072       1    3290    4101    3057    4620
CTETRA     23073       1    4101    4077    4616    4623
CTETRA     23074       1    2008    4077    4101    4623
CTETRA     23075       1    3795    4605    3058    4629
CTETRA     23076       1    4120    4637    4609    4608
CTETRA     23077       1    3426    2846    1058     935
CTETRA     23078       1     949    2952    5009    5000
CTETRA     23079       1    2091     949    2270    3759
CTETRA     23080       1    5000     949    5001    5009
CTETRA     23081       1    1929     193     356    3131
CTETRA     23082       1    6705    6780    6704    2302
CTETRA     23083       1    4066    2074    3921    3497
CTETRA     23084       1    2573    2569    6152    6151
CTETRA     23085       1    2981    1521    1534    1533
CTETRA     23086       1    1508    1148    1519    1529
CTETRA     23087       1    5639    2040    3817    3816
CTETRA     23088       1    3715    4372    2201    4397
CTETRA     23089       1    3404    1173    5552    5551
CTETRA     23090       1    3861    3842    4348    4334
CTETRA     23091       1    3286    4321    2098    4404
CTETRA     23092       1    4039    6367    1606    6368
CTETRA     23093       1    2254    2255    5176    5171
CTETRA     23094       1    2256    5168    3839    2323
CTETRA     23095       1     371    5600    5676    5601
CTETRA     23096       1    3522    2125    2008    4624
CTETRA     23097       1    2210    2008    4101    4622
CTETRA     23098       1    3265    4624    3522    2008
CTETRA     23099       1    3945    4098    4093    3946
CTETRA     23100       1    2010    3522    2125    2008
CTETRA     23101       1    2009    4101    2210    2008
CTETRA     23102       1    3343    3968    5747    2030
CTETRA     23103       1    4199    3829    2983    2413
CTETRA     23104       1    2986    6843    3599    5175
CTETRA     23105       1    2327     702     703     704
CTETRA     23106       1    1360    1347    1741    1361
CTETRA     23107       1    3011    2619    2588    6294
CTETRA     23108       1    4199    2413    2983    2318
CTETRA     23109       1    1347    1741    1361    1722
CTETRA     23110       1    3391    2321    2322    5214
CTETRA     23111       1    3929    5165    3846    4002
CTETRA     23112       1    1520    3183    1812    2696
CTETRA     23113       1    3814    2986    3846    1990
CTETRA     23114       1    3599    5164    3621    4002
CTETRA     23115       1    4106    3621    2911    4002
CTETRA     23116       1    1347    1720    1741    1722
CTETRA     23117       1    4181    4106    3929    4002
CTETRA     23118       1    3621    2911    4002    5179
CTETRA     23119       1    2812    2814    4133     325
CTETRA     23120       1    3039    2925    1088    3037
CTETRA     23121       1    6363     208    6439    6438
CTETRA     23122       1    1778    1788    6290    6923
CTETRA     23123       1    1633    6921    3717    6922
CTETRA     23124       1    3717    6922    1632    1633
CTETRA     23125       1    3281    6212    1396     412
CTETRA     23126       1    1095    1099     688    5245
CTETRA     23127       1     713    3778    5232    5225
CTETRA     23128       1    2756    1649     815    2524
CTETRA     23129       1    1302    1477    5239    5238
CTETRA     23130       1    1302    1094    5231    3681
CTETRA     23131       1    2254    2256    5160    5176
CTETRA     23132       1    4215    3382    2632    3010
CTETRA     23133       1    3391    5214    2322    5213
CTETRA     23134       1    2320    5215    2321    5214
CTETRA     23135       1    2320    3391    5214    2321
CTETRA     23136       1    2254    2256    2319    5160
CTETRA     23137       1    2122     767    2296    2694
CTETRA     23138       1    2318    2319    5216    5160
CTETRA     23139       1    3690    1606    6516    6517
CTETRA     23140       1    2255    2256    5176    3839
CTETRA     23141       1    2320    2319    2321    5215
CTETRA     23142       1    1605    3717    6921    6366
CTETRA     23143       1    6441    6366    1606    1605
CTETRA     23144       1    4673    4674    3650    4680
CTETRA     23145       1    1176    3111    2421    4727
CTETRA     23146       1    1760    1757    1186    4119
CTETRA     23147       1     303     304    3992     305
CTETRA     23148       1    3160    4444    3276    3161
CTETRA     23149       1    3633    3963    3809     741
CTETRA     23150       1    2441    4284    3151    4283
CTETRA     23151       1    2076     415     414    4067
CTETRA     23152       1    3766    5121    3213    2044
CTETRA     23153       1    4136    3453    3442     856
CTETRA     23154       1     902     369    3766    5101
CTETRA     23155       1     967    3766    2044    5114
CTETRA     23156       1     941     939     967     940
CTETRA     23157       1    3766    3213    5121    5123
CTETRA     23158       1     217    6473    2900    2899
CTETRA     23159       1    2283    6484    2284    6483
CTETRA     23160       1    3743    3878    4997    4999
CTETRA     23161       1    2950     977    4204    2949
CTETRA     23162       1     943     945    4996    4995
CTETRA     23163       1    2941    2240    2302    2895
CTETRA     23164       1    1465    1500    4045    3117
CTETRA     23165       1    3841     664    3380    1607
CTETRA     23166       1    3000     945    3380    5029
CTETRA     23167       1     666    4059     664    5021
CTETRA     23168       1     829    1984    1289    1288
CTETRA     23169       1     357    5072    5071    5088
CTETRA     23170       1     870    1922     920     193
CTETRA     23171       1     196     902    5102    5106
CTETRA     23172       1    2043     967    3766    2044
CTETRA     23173       1    3246    2966    4188    1187
CTETRA     23174       1     902    3766    5114    5101
CTETRA     23175       1     195     393    5106    5107
CTETRA     23176       1    3449    5021     666    4919
CTETRA     23177       1    3641    3866    3449    5022
CTETRA     23178       1    2995    3545    3411    2789
CTETRA     23179       1    3840    2031    2359     995
CTETRA     23180       1     339    1578     341    6336
CTETRA     23181       1    3745    3099    3076    1064
CTETRA     23182       1     995    3866    3878    3000
CTETRA     23183       1    2181    6702    1372    6701
CTETRA     23184       1    3727     460     666     228
CTETRA     23185       1    3878    4146     943    5005
CTETRA     23186       1    2359     943     945    3000
CTETRA     23187       1    4140    1878    3346    3462
CTETRA     23188       1     750    3500    1798    2276
CTETRA     23189       1    3847    4153    3864    2218
CTETRA     23190       1    5730    4130    3879    4111
CTETRA     23191       1    3107    3888    3563    4049
CTETRA     23192       1    4129    3346    4095    3457
CTETRA     23193       1    1893    1854    1892    1896
CTETRA     23194       1    4130    3887    5730    5729
CTETRA     23195       1    4094    3735    3830    3222
CTETRA     23196       1    3889    5953    3940    5954
CTETRA     23197       1    3222    4469    3735    3830
CTETRA     23198       1    3756    3830    4468    3864
CTETRA     23199       1    3888    1854    2357    4049
CTETRA     23200       1    3277    5724    5800    5725
CTETRA     23201       1    2217    4551    3864    4467
CTETRA     23202       1    2208    2053    2052    3740
CTETRA     23203       1    2053    3222    1028    4470
CTETRA     23204       1    3221    3277    5801    5726
CTETRA     23205       1    3277    5875    4165    4192
CTETRA     23206       1    1854    3221    3277    4192
CTETRA     23207       1    4147    5799    1887    4165
CTETRA     23208       1    4175    5725    3347    5650
CTETRA     23209       1    3900    2235    5113    5093
CTETRA     23210       1     962     941    2043     940
CTETRA     23211       1     902    4177    2043    3766
CTETRA     23212       1    2164    2043     941     967
CTETRA     23213       1    1568    1567    2182    2560
CTETRA     23214       1    2235    5093    3900    3284
CTETRA     23215       1    5093    3900    3284    5094
CTETRA     23216       1    1348    1508    1519    1349
CTETRA     23217       1    6540    6615    6539    2387
CTETRA     23218       1    2585    2154    2234    3673
CTETRA     23219       1    1545    5660    3850    5735
CTETRA     23220       1    2424    2217    4550    3848
CTETRA     23221       1    5734    3850    5810    2621
CTETRA     23222       1    3662    4200    1446    3660
CTETRA     23223       1    2658    2109    3803    3188
CTETRA     23224       1    2216    4584    3848    4549
CTETRA     23225       1    1496    1113     589    1399
CTETRA     23226       1    2216    2109    3848    4584
CTETRA     23227       1    2109    4581    3188    4584
CTETRA     23228       1    1331    2259    4078    2253
CTETRA     23229       1     855    2077    4766    3448
CTETRA     23230       1     299     855    2077    4770
CTETRA     23231       1    3966     855    4763    3448
CTETRA     23232       1     855    2077    4770    4766
CTETRA     23233       1     296     298     855     299
CTETRA     23234       1    3906    5915    3915    3409
CTETRA     23235       1    2040    5564    5640    5565
CTETRA     23236       1    2332    3043    2222    2410
CTETRA     23237       1    2409    3207    3047    2412
CTETRA     23238       1    3182    3192    3821    2604
CTETRA     23239       1    3227    3898    4400    4394
CTETRA     23240       1    4144    5644    4104    5643
CTETRA     23241       1    3818    4167    5641    5716
CTETRA     23242       1    3862    5789    4091    5788
CTETRA     23243       1    3863    5788    4091    5787
CTETRA     23244       1    5712    5787    2045    4091
CTETRA     23245       1    3207    3175    2412    2061
CTETRA     23246       1    2793    3450    2178    3607
CTETRA     23247       1    3043    3047    4318    2410
CTETRA     23248       1    2018    2063    5409    5485
CTETRA     23249       1     297     508    4769     299
CTETRA     23250       1    3905     405    5911    5836
CTETRA     23251       1    3894    4126    3216    4128
CTETRA     23252       1    1310    2251    2097    4078
CTETRA     23253       1    3055    3391    2320    2321
CTETRA     23254       1    3095    3003    3391    1478
CTETRA     23255       1    3957     436    2886    2909
CTETRA     23256       1    2413    5264    2318    2320
CTETRA     23257       1    3003    3778    5226    1477
CTETRA     23258       1    3865    6591    6592    6516
CTETRA     23259       1    3777    5226    3778    5225
CTETRA     23260       1    3003    3391    1478    5227
CTETRA     23261       1    2124    2126    4745    4744
CTETRA     23262       1     755    4757     892    4742
CTETRA     23263       1    3781    5664    5589    5588
CTETRA     23264       1    3301    3772    5737     912
CTETRA     23265       1    2108    2022    3352    5443
CTETRA     23266       1    2084    3877    2111    4571
CTETRA     23267       1     912    5587    5663    5588
CTETRA     23268       1    2964    3795    4606    3058
CTETRA     23269       1    3948    3921    4323    4403
CTETRA     23270       1    3286    4399    3806    4321
CTETRA     23271       1    2591    1732    1428    1439
CTETRA     23272       1    3321    3921    4322    2098
CTETRA     23273       1    5857    3670    5781    3844
CTETRA     23274       1    3369    3716    2201    3431
CTETRA     23275       1    3320    4404    3321    4402
CTETRA     23276       1    3629    3825    5636    3359
CTETRA     23277       1    2074    3497    4424    3921
CTETRA     23278       1    3321    4322    3921    4403
CTETRA     23279       1    3299    3735    3222    2053
CTETRA     23280       1    5799    5724    5800    3277
CTETRA     23281       1    3457    3228    3232    3913
CTETRA     23282       1    2543    2103    2104     970
CTETRA     23283       1    3264    3187    3190    3847
CTETRA     23284       1    1896    1887    3614    4165
CTETRA     23285       1     228     666    2306    4921
CTETRA     23286       1     931     942     929     930
CTETRA     23287       1    2661    3698    3697    3835
CTETRA     23288       1     228     666    4921    4920
CTETRA     23289       1    3725    3726    3396    2953
CTETRA     23290       1     160    4960    4948    4959
CTETRA     23291       1    3878     943    3000    4996
CTETRA     23292       1    2506    3601    3583    3924
CTETRA     23293       1    1242    3466    4043     326
CTETRA     23294       1    3871     855    3966    3448
CTETRA     23295       1    3992     305    3446     318
CTETRA     23296       1    3539    3477    4671    4672
CTETRA     23297       1    1594    4105    5616    5691
CTETRA     23298       1    3971    5619    1760    5694
CTETRA     23299       1    4210    1577    1030    4211
CTETRA     23300       1    6792     135     134     133
CTETRA     23301       1    2115    3136    2116    2117
CTETRA     23302       1    2372    3990    3739    3225
CTETRA     23303       1    3790    3576    3791    4209
CTETRA     23304       1     657     641     989    1445
CTETRA     23305       1    6794     133    6718    2000
CTETRA     23306       1     478    4924    3994    4932
CTETRA     23307       1    1346    1347    2962    2967
CTETRA     23308       1    3200    2998    3634    6645
CTETRA     23309       1    4106    4002    2911    3392
CTETRA     23310       1    4032    4033    4163    3610
CTETRA     23311       1    3503    1089    1088     667
CTETRA     23312       1    2234    2929    3673    5091
CTETRA     23313       1    4163    3875    3900    2235
CTETRA     23314       1    4124     242    2269     476
CTETRA     23315       1    3697     989    2160    6414
CTETRA     23316       1     665    5024    2878    5025
CTETRA     23317       1    3449     666    5021    4059
CTETRA     23318       1     242    2269     476    4930
CTETRA     23319       1    3063    6413    3697     341
CTETRA     23320       1     242    1562    4928    4929
CTETRA     23321       1    6411    6336    6412     341
CTETRA     23322       1    2952     949    3958    5000
CTETRA     23323       1    2239    4915    4914    5007
CTETRA     23324       1     949    4146    5000    5006
CTETRA     23325       1     765    1812    3168    3167
CTETRA     23326       1    2900     933    6475    6550
CTETRA     23327       1    3338    4560    4554    4558
CTETRA     23328       1    3543    3968    5824    5749
CTETRA     23329       1    3344    5522    5521    5597
CTETRA     23330       1    2207    5749    3075    5674
CTETRA     23331       1    4114    3973    3622    3522
CTETRA     23332       1    4210     331     338    1578
CTETRA     23333       1    2007    2008    4077    4101
CTETRA     23334       1    1307    3804     155    4044
CTETRA     23335       1    4008    6586    6661    6662
CTETRA     23336       1    4031    3846    2986    4002
CTETRA     23337       1    5170    1990    5177    3846
CTETRA     23338       1    2986    4002    3846    5175
CTETRA     23339       1    3599    5164    4002    5175
CTETRA     23340       1     539    1999    3534    2824
CTETRA     23341       1     451    1650    1663    1198
CTETRA     23342       1    6458     667    6533    6457
CTETRA     23343       1    1088    2925    6456    1550
CTETRA     23344       1    2360    2362    3512     811
CTETRA     23345       1    1590    2996    2723     573
CTETRA     23346       1    4053    2389    6453    6454
CTETRA     23347       1    3274    2245     597     598
CTETRA     23348       1    2389    6455    6379    6454
CTETRA     23349       1    6380    6455    6379    2389
CTETRA     23350       1    2301    1997    1731    2929
CTETRA     23351       1    4053    6454    2925    2389
CTETRA     23352       1    4073    2165    3497    2166
CTETRA     23353       1    2047    2165    4454    4452
CTETRA     23354       1    4431    3497    4424    2074
CTETRA     23355       1    3879    3885    2620    4111
CTETRA     23356       1    3264    4153    3190    2813
CTETRA     23357       1    3756    3830    4503    4468
CTETRA     23358       1    2710    2215    4548    4547
CTETRA     23359       1    1870    1892    4154    3347
CTETRA     23360       1    4503    3756    2037    3830
CTETRA     23361       1    1075    1022    1500    1023
CTETRA     23362       1    3756    2217    3864    4467
CTETRA     23363       1    2753    2001    3756    2037
CTETRA     23364       1    2217    4550    2218    4551
CTETRA     23365       1    3155    3467    1562     478
CTETRA     23366       1    3067     478     476     477
CTETRA     23367       1    3492    1560    3467    2523
CTETRA     23368       1     228    2306    4944    4921
CTETRA     23369       1    2269    2306    4922    4944
CTETRA     23370       1    3067     476    2307     477
CTETRA     23371       1    3164    6641    6642    6566
CTETRA     23372       1    2387    6615    6616    6540
CTETRA     23373       1    3875    3354    5119    3610
CTETRA     23374       1     902     967    5114    3766
CTETRA     23375       1     127    5104    5108    5097
CTETRA     23376       1    2360     811     378    2363
CTETRA     23377       1    4744    3143    4695    2124
CTETRA     23378       1    4698    3326     785    2142
CTETRA     23379       1    4030     485     297     755
CTETRA     23380       1     493     755    4742    4741
CTETRA     23381       1     892     508     509    4757
CTETRA     23382       1    3925    5753    2086    2085
CTETRA     23383       1     610     298    4748    4751
CTETRA     23384       1    2177    5589    5665    5590
CTETRA     23385       1    5815    5814    5739    4092
CTETRA     23386       1     455    5510    3930    5585
CTETRA     23387       1    6183    1467    6184    2716
CTETRA     23388       1    2021    4635    1542    4646
CTETRA     23389       1    3301    4092    5738    5814
CTETRA     23390       1    2083    2084    4629    3058
CTETRA     23391       1    3653    3343    2030    3968
CTETRA     23392       1    3138    3290    3057    4611
CTETRA     23393       1    2968    2963    3138    3649
CTETRA     23394       1    3778    1477    1302    5238
CTETRA     23395       1     980    1302    1094    5231
CTETRA     23396       1    3778    1302    5232    5238
CTETRA     23397       1    6596    6521    6597    2153
CTETRA     23398       1    3003    5241    1477    5226
CTETRA     23399       1    3230    2083    3293    4643
CTETRA     23400       1    1542    4634    3795    4643
CTETRA     23401       1    3138    1563    4614    4611
CTETRA     23402       1    2210    4620    3290    4619
CTETRA     23403       1    3138    3058    4606    4615
CTETRA     23404       1    1533    2964    1540    2979
CTETRA     23405       1    3886    3342    2020    3387
CTETRA     23406       1    2083    3795    4629    4643
CTETRA     23407       1    3335    4556    4555    4609
CTETRA     23408       1    1466    3224    4045    2600
CTETRA     23409       1    2979    3140    2210    3290
CTETRA     23410       1    2216    2109    4584    4585
CTETRA     23411       1    2710    4549    2424    4465
CTETRA     23412       1    2737    3291    2721    2736
CTETRA     23413       1    2216    4569    2110    4585
CTETRA     23414       1    2216    2720    2424    3146
CTETRA     23415       1    2110    4569    2215    3609
CTETRA     23416       1    1099    5228    5229    3514
CTETRA     23417       1    5244    1099    5228    5229
CTETRA     23418       1    1899    1731    3514    1495
CTETRA     23419       1    3514    1731    5235    1495
CTETRA     23420       1    1997    3514    1731    5228
CTETRA     23421       1    3514    1495    5235    5229
CTETRA     23422       1    3859    4046    3418    3678
CTETRA     23423       1    1998    1516    4892    5052
CTETRA     23424       1    3832    1548    4011    1549
CTETRA     23425       1    4210    3557     331    1578
CTETRA     23426       1    3468    4883    3473    3710
CTETRA     23427       1    2195    4882    2452    3473
CTETRA     23428       1      76    4265    6802    6801
CTETRA     23429       1    3902    2452    2195    2194
CTETRA     23430       1    3154    3693     478    3994
CTETRA     23431       1    3710    3693    3994    4925
CTETRA     23432       1    3468    5151    3753    5146
CTETRA     23433       1    2402    1228     296     297
CTETRA     23434       1    3539    3963     741    2712
CTETRA     23435       1    3329    2206    4071    2166
CTETRA     23436       1    1594    3466    3459     326
CTETRA     23437       1    3151    3477    4678    4284
CTETRA     23438       1    4137    3996     304    3995
CTETRA     23439       1    1592    1759    4161    5617
CTETRA     23440       1    4213    2233    3284    1515
CTETRA     23441       1    2235    5112    3610    5113
CTETRA     23442       1    3900    2235    3875    5113
CTETRA     23443       1    3284    1515    5043    5044
CTETRA     23444       1    1430    1432    3172    1497
CTETRA     23445       1    2234    5112    2235    5092
CTETRA     23446       1    2117    2513    6424    2562
CTETRA     23447       1    4037    3420    3077    3748
CTETRA     23448       1    3722    2652    4111    4201
CTETRA     23449       1    3134    5152    3468    6849
CTETRA     23450       1    4194    2890    2066    2880
CTETRA     23451       1    2552    3231    3021    3990
CTETRA     23452       1     917    2912    5200    5145
CTETRA     23453       1    1956    1957    2437    2772
CTETRA     23454       1     168    2068    2070    2069
CTETRA     23455       1    2609    3067    3684    3950
CTETRA     23456       1    3980    3685    2958    2440
CTETRA     23457       1    2630    1741    1742    2634
CTETRA     23458       1    4104    5643    5568    5567
CTETRA     23459       1    2332    3483    2222    3043
CTETRA     23460       1    3042    3043    4390    4317
CTETRA     23461       1    2856    2672    4144    2860
CTETRA     23462       1    2304    2085    5830    5755
CTETRA     23463       1     745    3532    4772    4771
CTETRA     23464       1    2711    3448    3871    3966
CTETRA     23465       1    2443    2304    2085    5830
CTETRA     23466       1    2075    5754    3925    2085
CTETRA     23467       1     746    2124    4744    2126
CTETRA     23468       1    2141     891    4694    4701
CTETRA     23469       1    2252    5606    5605    5681
CTETRA     23470       1     746     892     509    4758
CTETRA     23471       1     867     355    2028     771
CTETRA     23472       1     929     944     959     931
CTETRA     23473       1     933    6399    2899    6474
CTETRA     23474       1     933    6400    2899    6399
CTETRA     23475       1    2899     216    6473    6398
CTETRA     23476       1     969    2900    6550     933
CTETRA     23477       1    6551    1372    3001     969
CTETRA     23478       1    3881    6476    6400     933
CTETRA     23479       1    6401    3881    6476    6400
CTETRA     23480       1    1926    2900    3141    3001
CTETRA     23481       1     352     354    5080    5078
CTETRA     23482       1    2698    6700    3142    6775
CTETRA     23483       1     874    2031    2358     570
CTETRA     23484       1    1050     930    4905     929
CTETRA     23485       1     969     933    6475    6476
CTETRA     23486       1     941     939     901     967
CTETRA     23487       1    2086    5827    5751     953
CTETRA     23488       1    3518    3543    3075    3968
CTETRA     23489       1    5752    2086    5827    5751
CTETRA     23490       1    1483    1464    1705    1986
CTETRA     23491       1    3620    3561     371    4127
CTETRA     23492       1    2652    4111    4201    4112
CTETRA     23493       1    3075     953    5751    5826
CTETRA     23494       1    2969    2968    2978    2007
CTETRA     23495       1    2201    3431    3716    4397
CTETRA     23496       1    2198    2930    4395    4393
CTETRA     23497       1    1983    1986    1468    1987
CTETRA     23498       1    2062    4357    3244    1057
CTETRA     23499       1    2859    3422    3042    3048
CTETRA     23500       1    3898    3806    4399    4320
CTETRA     23501       1    3175    3898    4320    3806
CTETRA     23502       1    3217    3215    5547    5622
CTETRA     23503       1    2471    3477    3151    2581
CTETRA     23504       1    2431    2065    5696    5771
CTETRA     23505       1    4113    2065    5697    5696
CTETRA     23506       1     358    2914    1539    1579
CTETRA     23507       1    4113    2431    5696    5695
CTETRA     23508       1    2064    2065    4113    3970
CTETRA     23509       1    1982    4097    4066    1795
CTETRA     23510       1    4105    5767    4119    5768
CTETRA     23511       1    4105    4119    5693    5768
CTETRA     23512       1    1176    4724    1584    4726
CTETRA     23513       1    2013     906    2014     904
CTETRA     23514       1    2647     918    2101    1344
CTETRA     23515       1     326    5691    5767    4105
CTETRA     23516       1    5766     326    5691    5767
CTETRA     23517       1    1585    5466    5542    5467
CTETRA     23518       1    2654    3459    1594    3466
CTETRA     23519       1    1592    3459    1611    1759
CTETRA     23520       1    3177    3966     496    4746
CTETRA     23521       1    3963    3177     741    3966
CTETRA     23522       1    3318    3789    5486    5487
CTETRA     23523       1    3321    4404    2098    4322
CTETRA     23524       1    3939    2504    3322    3401
CTETRA     23525       1    3737    2922    3844    2173
CTETRA     23526       1    3081    3921    3321    2098
CTETRA     23527       1    3081    2098    3286    3806
CTETRA     23528       1    2919    3629    3370    3825
CTETRA     23529       1    3321    3286    2098    4404
CTETRA     23530       1    2238    2171    2249    2237
CTETRA     23531       1    3970    2058    2064    2065
CTETRA     23532       1    3199    1622    4069    1808
CTETRA     23533       1    2172    2064    2058    5624
CTETRA     23534       1    2058    5624    5625    2172
CTETRA     23535       1    3928    3497    3921    2098
CTETRA     23536       1    5700    1171    1804    3413
CTETRA     23537       1    1008    3203    5403    4358
CTETRA     23538       1     416    4168    1164    4097
CTETRA     23539       1    2046    3405    3439    1794
CTETRA     23540       1    1841    1795    1982    4066
CTETRA     23541       1    3716    4401    3320    4398
CTETRA     23542       1    2047    4324    2074    4452
CTETRA     23543       1    2074    2165    4431    3497
CTETRA     23544       1    3948    4323    2074    4336
CTETRA     23545       1    2047    2074    2165    4452
CTETRA     23546       1    1014    3723    1016    1030
CTETRA     23547       1    2074    2165    4452    4431
CTETRA     23548       1    1625    2203    4038    4071
CTETRA     23549       1    5850    3085    5926    2152
CTETRA     23550       1    3325    5780    3670    5781
CTETRA     23551       1    4631    2083    4628    2112
CTETRA     23552       1    3795    3058    4605    4606
CTETRA     23553       1    2083    3230    4131    3795
CTETRA     23554       1    1567    3365    4171    4187
CTETRA     23555       1    3157    3286    3898    3806
CTETRA     23556       1    3629    2173    5710    5709
CTETRA     23557       1    2922    5634    3629    2919
CTETRA     23558       1    3080    3490    3819    3499
CTETRA     23559       1    5635    3629    3825    5636
CTETRA     23560       1     992    2502    3565    1021
CTETRA     23561       1    2566    2045    3863    4107
CTETRA     23562       1    3863    5787    2045    5786
CTETRA     23563       1    5787    2045    4091    3863
CTETRA     23564       1    2771    3205    3960    2605
CTETRA     23565       1    3848    1715    3146    2424
CTETRA     23566       1    1717    2430    2424    2217
CTETRA     23567       1    4178    3918    3235    3910
CTETRA     23568       1    1717    2217    3848    2218
CTETRA     23569       1    3692    6594    2401    6593
CTETRA     23570       1    3702    3882    1989    2983
CTETRA     23571       1    1367    2256    2254    2255
CTETRA     23572       1    2319    2321    5159    2256
CTETRA     23573       1    1369    2319    2256    2321
CTETRA     23574       1    1605    6440    1633    1621
CTETRA     23575       1    3211    3594    2300    1606
CTETRA     23576       1    2318    2319    5264    5216
CTETRA     23577       1     755     892    4757     508
CTETRA     23578       1    3773     892     755     508
CTETRA     23579       1    2645    2100    2648    2647
CTETRA     23580       1     611    2225    4206    2101
CTETRA     23581       1    2658    2659    1752    3847
CTETRA     23582       1     508     509    2402     892
CTETRA     23583       1     485     297    4749    4752
CTETRA     23584       1    2511    2515     436    2642
CTETRA     23585       1    2303    2253    5682    5683
CTETRA     23586       1    2605     190    2816    3960
CTETRA     23587       1    3326    4692    4698    4702
CTETRA     23588       1    3883    6663    6738    6739
CTETRA     23589       1    1989    5171    2254    5161
CTETRA     23590       1    1128    1015    1131    1000
CTETRA     23591       1    2775    4035    6436    4015
CTETRA     23592       1    4074    3749    2912    2911
CTETRA     23593       1    6435    3330    3331    4035
CTETRA     23594       1    6362     208    6437    4015
CTETRA     23595       1    2777    6363    2778    4015
CTETRA     23596       1    3330    6436    4035    6435
CTETRA     23597       1    2301    1997    3514    1731
CTETRA     23598       1     667    1089    6457    6458
CTETRA     23599       1     667    1089    6458    6383
CTETRA     23600       1     667    1089    6383    3504
CTETRA     23601       1    1502     667    6533    6458
CTETRA     23602       1    4116    3040     725    6461
CTETRA     23603       1    6458     667    6383    6459
CTETRA     23604       1    1502    6609    6533    2928
CTETRA     23605       1    2928    1502     668    6533
CTETRA     23606       1    3049    5252    5221    5253
CTETRA     23607       1    2964    3140    1540    2979
CTETRA     23608       1    4188    2084    3877    2111
CTETRA     23609       1    5813    3569    5888    2178
CTETRA     23610       1    5891    3923    5890    2192
CTETRA     23611       1    2192    3387    5742    5817
CTETRA     23612       1    5742    2192    5741      57
CTETRA     23613       1    3588     663     665    3684
CTETRA     23614       1    4123    3734     241    2269
CTETRA     23615       1    2448    2839    2449    3739
CTETRA     23616       1    3227    3898    3431    4400
CTETRA     23617       1    3175    4320    3898    4394
CTETRA     23618       1    3207    3175    3047    2412
CTETRA     23619       1    3365    3175    3898    2930
CTETRA     23620       1    2198    2930    4393    3047
CTETRA     23621       1    3952    1476    6451     712
CTETRA     23622       1    3859    1248    3860    2315
CTETRA     23623       1    1300    1094    1302    3681
CTETRA     23624       1    2389    3919    4053    1476
CTETRA     23625       1    1476    6527    6451     712
CTETRA     23626       1    1475    1476     712    6527
CTETRA     23627       1     595    1099    5244     688
CTETRA     23628       1    3395    3393    6527    6602
CTETRA     23629       1    3801    1475    4053    1476
CTETRA     23630       1    3393    6679    6603    6678
CTETRA     23631       1    3678    1765    2248    2924
CTETRA     23632       1    4081    2304    5831    5756
CTETRA     23633       1    2081    2032    3527    2082
CTETRA     23634       1    3997    1430    1431    1432
CTETRA     23635       1    5752    2086    5828    5827
CTETRA     23636       1    3561     371    5601    5600
CTETRA     23637       1    2906     377    2387    2397
CTETRA     23638       1    1071    1020    1022    1023
CTETRA     23639       1    5042    5043    2929    1998
CTETRA     23640       1    6764    6765    2380    6689
CTETRA     23641       1    6465     723    6541     722
CTETRA     23642       1    2676    1710    2675    3451
CTETRA     23643       1     725    6387    2228    6386
CTETRA     23644       1    6386     725    4116    2228
CTETRA     23645       1    4116    6460    3040    6461
CTETRA     23646       1     713     980    5232    1302
CTETRA     23647       1    3382    3778     713    5225
CTETRA     23648       1    1300     980    1302    1094
CTETRA     23649       1    1336    1302    1477    3681
CTETRA     23650       1    4215    2632    2188    3010
CTETRA     23651       1    3159    6752    6751    5275
CTETRA     23652       1    3009    6525    3127    6600
CTETRA     23653       1    3808    5424    5500    5425
CTETRA     23654       1    3347    2357    3221    1892
CTETRA     23655       1     414     415     416    4067
CTETRA     23656       1    3530    1853    1855    1854
CTETRA     23657       1    1544    2644    1509    4159
CTETRA     23658       1    4468    4469    3864    3830
CTETRA     23659       1    4095    2475    3788    3232
CTETRA     23660       1    3228    3735    2053    4495
CTETRA     23661       1    4469    3735    3830    4492
CTETRA     23662       1    3735    3222    4470    4469
CTETRA     23663       1    3735    4470    2053    4495
CTETRA     23664       1    4154    4049    1868    3564
CTETRA     23665       1    4095    2037    3788    2038
CTETRA     23666       1    3030    3029    3983    2066
CTETRA     23667       1    6725    6726    3029    3974
CTETRA     23668       1    6429    4023    6430    3162
CTETRA     23669       1    3196    3491    3200    2998
CTETRA     23670       1    3786    1941    1283     645
CTETRA     23671       1    3902    2195    3473    3134
CTETRA     23672       1    3231    2117    2513    6424
CTETRA     23673       1    2117    6424    3231    6423
CTETRA     23674       1     934    2117    6575    6500
CTETRA     23675       1    2577    6427    2265    3924
CTETRA     23676       1    3818    2040    3817    5640
CTETRA     23677       1    3107    4049    1854    3888
CTETRA     23678       1    1680    4004    3822    3236
CTETRA     23679       1    3499    4200    3827    3080
CTETRA     23680       1    3365    3898    3227    2930
CTETRA     23681       1    3538    4164    4203    5867
CTETRA     23682       1    4187    2930    2198    3047
CTETRA     23683       1    2435    4050    3538    2606
CTETRA     23684       1    5491    5492    3033    5416
CTETRA     23685       1    3867    2783    4164    4203
CTETRA     23686       1    2355    3550    4050    4051
CTETRA     23687       1    2138    2139    6010    6011
CTETRA     23688       1     681    5632     105    5631
CTETRA     23689       1    3904    3789    2018    3826
CTETRA     23690       1    3939    3315    3322    2504
CTETRA     23691       1    3629    5709    2922    2173
CTETRA     23692       1    5706    2128    5781    5705
CTETRA     23693       1    4066    3948    3921    2074
CTETRA     23694       1    2922    2173    5709    5784
CTETRA     23695       1    2922    5783    2173    5784
CTETRA     23696       1    5305    6748    3112    3006
CTETRA     23697       1    3690    2300    1606    6517
CTETRA     23698       1    3692    3916    2401    6594
CTETRA     23699       1    3998    3901    3268    3612
CTETRA     23700       1    3691    3270    3692    3630
CTETRA     23701       1    3630    2129    5285    5274
CTETRA     23702       1    6366    1606    1605    3717
CTETRA     23703       1    1606    3717    6366    6367
CTETRA     23704       1    1652    3531    3851    3722
CTETRA     23705       1    1340    1775    2203    1339
CTETRA     23706       1    3983    6725    6649    6724
CTETRA     23707       1    3154    3693    3467     478
CTETRA     23708       1     242     476    4929    4930
CTETRA     23709       1    3154    3710    3473    3693
CTETRA     23710       1    6645    2998    2000    3200
CTETRA     23711       1    4017    3990    6495    6496
CTETRA     23712       1    4017    3990    2373    6495
CTETRA     23713       1    3309    2116    3136    6572
CTETRA     23714       1     744    4269    6794    6856
CTETRA     23715       1    3790    4209    1959    3163
CTETRA     23716       1    3136    3990    6496    6421
CTETRA     23717       1    2255    1990    3935    3846
CTETRA     23718       1    3408    1919    6139    6064
CTETRA     23719       1    1252    3865    1604    1626
CTETRA     23720       1    3330     208    6437    6512
CTETRA     23721       1    3135    4024    6506    6431
CTETRA     23722       1    6657    3658    2980    6732
CTETRA     23723       1    4028    6508    6432    4047
CTETRA     23724       1    2773    4024    3135    4010
CTETRA     23725       1    3135    6506    4024    6505
CTETRA     23726       1    3748    3686    3736    4244
CTETRA     23727       1    2383    2371    2532    2448
CTETRA     23728       1    6506    3657    2575    3135
CTETRA     23729       1    3135    4024    6431    4010
CTETRA     23730       1    3162    3135    4024    6505
CTETRA     23731       1    1797    2165    4453    4454
CTETRA     23732       1    3325    3241    5779    5704
CTETRA     23733       1    3949    3241    5779    3325
CTETRA     23734       1    4340    1163    3891    1164
CTETRA     23735       1    3243    1172    1171    5776
CTETRA     23736       1    3085    5775    5851    5776
CTETRA     23737       1    2189    4919     460    4952
CTETRA     23738       1    3571    4195    2953    3725
CTETRA     23739       1    3571    3065    3726    2953
CTETRA     23740       1     460     666     228    4920
CTETRA     23741       1     241     228    2269    4944
CTETRA     23742       1     905    4146     931     943
CTETRA     23743       1    4211    2176    1577    3171
CTETRA     23744       1     241    2269    4943    4944
CTETRA     23745       1    3740    3796    4152    4493
CTETRA     23746       1    4103    2093    2818    1801
CTETRA     23747       1    3909    4141    3275    4150
CTETRA     23748       1    4152    2208    3740    2053
CTETRA     23749       1    1888    4147    4180    1887
CTETRA     23750       1    4180    1887    5723    5798
CTETRA     23751       1    4180    5797    1887    5798
CTETRA     23752       1    2740    3666    1868    3564
CTETRA     23753       1    3275    4489    3927    4496
CTETRA     23754       1    5646    3836    4183    5570
CTETRA     23755       1    4147    4180    1887    5723
CTETRA     23756       1    4175    1878    1892    4147
CTETRA     23757       1    4284    4285    4458    2202
CTETRA     23758       1    2202    4459    2741    2581
CTETRA     23759       1    3203    3206    3288    4338
CTETRA     23760       1    2202    4443    2741    4459
CTETRA     23761       1    3978    5471    5395    5470
CTETRA     23762       1    3675    2202    3160    3161
CTETRA     23763       1    3414    5475    5551    5476
CTETRA     23764       1    4038    4069    2205    2741
CTETRA     23765       1    4069    2202    3161    2741
CTETRA     23766       1    2172    5548    5473    3215
CTETRA     23767       1    2506    2562    2508    2561
CTETRA     23768       1    4152    2053    3228    3735
CTETRA     23769       1    3347    5725    3277    5726
CTETRA     23770       1    4203    4050    3537    4051
CTETRA     23771       1    4140    4175    1878    3462
CTETRA     23772       1    2666    3614    2688    4165
CTETRA     23773       1    3228    3232    4490    3927
CTETRA     23774       1    2666    1854    3277    4192
CTETRA     23775       1    2721    3193    2736    3291
CTETRA     23776       1    2357    5727    3888    5728
CTETRA     23777       1    3132    3830    3864    3222
CTETRA     23778       1    3221    5876    4192    5877
CTETRA     23779       1    5726    2357    3221    3347
CTETRA     23780       1    4147    4175    5725    3277
CTETRA     23781       1    2357    3888    5727    5802
CTETRA     23782       1    2666    3277    4165    4192
CTETRA     23783       1    5729    4130    3887    5728
CTETRA     23784       1    1957    3671    6656    3658
CTETRA     23785       1    1959    1958    3658    1957
CTETRA     23786       1    3621    2911    5179    6846
CTETRA     23787       1    3045    6736    6811    6812
CTETRA     23788       1    1909    1918    1420    1421
CTETRA     23789       1    3077    3748    4247    4243
CTETRA     23790       1    3657    3135    6506    6507
CTETRA     23791       1    3748    3749    4247    6847
CTETRA     23792       1    4151    4023    3162    4024
CTETRA     23793       1    3621    3749    2911    6846
CTETRA     23794       1     338     341    6486    6487
CTETRA     23795       1    3196     133     132     135
CTETRA     23796       1    3063     989    6413    6488
CTETRA     23797       1    1445    6489     641     989
CTETRA     23798       1     149    4961     294    4949
CTETRA     23799       1    3063    2176    6487     338
CTETRA     23800       1    3063     341     338    6487
CTETRA     23801       1     132    2050    4026     160
CTETRA     23802       1    3063    3835     341    3697
CTETRA     23803       1    2159    6565     641    6566
CTETRA     23804       1    2508    2562    2513    2117
CTETRA     23805       1    2219     159     132    3022
CTETRA     23806       1    3200    3201    6644    6569
CTETRA     23807       1     989    2160    6414    6415
CTETRA     23808       1     934    2576    3576    2567
CTETRA     23809       1    2805    3749    3736    2912
CTETRA     23810       1    2577    2561    2576     934
CTETRA     23811       1    4214    2999    2002    3686
CTETRA     23812       1    3876     917    2002    3468
CTETRA     23813       1    1957    1959    2575    3671
CTETRA     23814       1    1979    4024    3162    3135
CTETRA     23815       1    2184    5478    5403    5402
CTETRA     23816       1    2046    4454    1797    4446
CTETRA     23817       1    1795    2047    2165    1797
CTETRA     23818       1    3894    3160    2202    2441
CTETRA     23819       1    5693    4105    5617    1760
CTETRA     23820       1    3522    2124    4695    3622
CTETRA     23821       1    2508    3231    2115    2117
CTETRA     23822       1    3265    4553    3522    4624
CTETRA     23823       1    4061    4052    6124    6123
CTETRA     23824       1    3522    4297    2124    2125
CTETRA     23825       1    2966    2456    2457    3070
CTETRA     23826       1    4117    2124    2126    2125
CTETRA     23827       1    5677     371    5601    4127
CTETRA     23828       1    2207    3343    5747    3892
CTETRA     23829       1     613    5603    5528    5527
CTETRA     23830       1    3925    5678    2086    5753
CTETRA     23831       1    2828     786    2141    4700
CTETRA     23832       1    2838    2828    4293    2811
CTETRA     23833       1    2086    5751    3075     953
CTETRA     23834       1    3935    1990    2255    2254
CTETRA     23835       1    1990    5177    3846    2255
CTETRA     23836       1    3613    3873    6590    6919
CTETRA     23837       1    2333    3865    3594    1604
CTETRA     23838       1    1990    2254    5171    2255
CTETRA     23839       1    3372    2320    5263    5264
CTETRA     23840       1    3369    3716    3431    3320
CTETRA     23841       1    2135    2330    4178    2137
CTETRA     23842       1    3320    3321    4404    3286
CTETRA     23843       1    3890    4403    3948    4335
CTETRA     23844       1    2859    4187    4193    3048
CTETRA     23845       1     106     681    2888     105
CTETRA     23846       1    3688    3948    3890    3321
CTETRA     23847       1    3948    3321    3921    4403
CTETRA     23848       1    3904    3861    3412    4332
CTETRA     23849       1    3231    2513    2508    2552
CTETRA     23850       1    3629    2045    5710    2173
CTETRA     23851       1    3825    3789    5485    5486
CTETRA     23852       1    2062    5407    5483    5408
CTETRA     23853       1     106    2888     107     105
CTETRA     23854       1    2371    2372    2367    2552
CTETRA     23855       1    2351    4017    2491    3200
CTETRA     23856       1    3154    3473    2452    3693
CTETRA     23857       1    2452    3473    4882    3693
CTETRA     23858       1    3693    3473    4882    3710
CTETRA     23859       1    3710    3753    3468    4883
CTETRA     23860       1    1896    4147    4165    3277
CTETRA     23861       1    3521    3836    3837    3323
CTETRA     23862       1    3816    2852    3818    3817
CTETRA     23863       1    2478    1800    2859    1801
CTETRA     23864       1    2509    2513    2512    2552
CTETRA     23865       1    5718    4167    5642    4144
CTETRA     23866       1    4144    4104    5644    4183
CTETRA     23867       1    2858    2857    4138    2135
CTETRA     23868       1    3274     628    2596    2197
CTETRA     23869       1    3859    3860    2459    2315
CTETRA     23870       1    3931    3592     971    1727
CTETRA     23871       1     596    1784    1095     595
CTETRA     23872       1    2232    2301    2929    1996
CTETRA     23873       1    1999    3733    1179    1304
CTETRA     23874       1    5043    1998    1515    2233
CTETRA     23875       1    4894    4893    5042    1997
CTETRA     23876       1    5243    5228    1099    1997
CTETRA     23877       1    6157    6158    1178     800
CTETRA     23878       1    3608    2111    4570    4571
CTETRA     23879       1    2110    4582    2111    2109
CTETRA     23880       1    2112    2083    4628    3293
CTETRA     23881       1    1717    2424    3848    2217
CTETRA     23882       1    2216    2110    2109    4585
CTETRA     23883       1    3608    2111    2110    4570
CTETRA     23884       1    2110    2109    4585    4582
CTETRA     23885       1    3211    3011    3005    1687
CTETRA     23886       1    3811    6918    6666    6591
CTETRA     23887       1    2300    1606    6442    6443
CTETRA     23888       1    3596    3271    1685    3916
CTETRA     23889       1    2401    6444    6520    1684
CTETRA     23890       1    2300    6444    1684    3005
CTETRA     23891       1    2300    1606    6443    6368
CTETRA     23892       1    4039    6368    2300    3005
CTETRA     23893       1    2300    6442    1606    6517
CTETRA     23894       1    3003    1477    5241    1478
CTETRA     23895       1    3800    3127    3009     712
CTETRA     23896       1    3865    1604    6516    1606
CTETRA     23897       1    3782    3372    3373    5270
CTETRA     23898       1    3373    2320    3391    5263
CTETRA     23899       1    2320    2319    5215    5264
CTETRA     23900       1    3210    2300    1684    3005
CTETRA     23901       1    3055    3391    3373    2320
CTETRA     23902       1    1795    2166    2011    2165
CTETRA     23903       1    4069    2011    2741    3161
CTETRA     23904       1    2047    1797    4454    2165
CTETRA     23905       1    3852    4446    1797    4447
CTETRA     23906       1    5626    5701    3413    1173
CTETRA     23907       1    3415    2058    2172    2064
CTETRA     23908       1    1238    3476    4125    4126
CTETRA     23909       1    2011    2165    2166    4453
CTETRA     23910       1    3560    3559     644    2810
CTETRA     23911       1     746    2124    3143    4744
CTETRA     23912       1    3267    2085    2443    2304
CTETRA     23913       1    2512    2513    2514    4056
CTETRA     23914       1    3622    4699    3143    4695
CTETRA     23915       1     891    3143    4743     892
CTETRA     23916       1     746    4744    3143    4743
CTETRA     23917       1     534    5530    5605    5606
CTETRA     23918       1    2251     534    2252    5531
CTETRA     23919       1    3618    2085    3925    2086
CTETRA     23920       1     799    4197    6233    1178
CTETRA     23921       1    2506    3256    2513    2562
CTETRA     23922       1    2234    5092    2233    2929
CTETRA     23923       1    2506    2561    3924    2562
CTETRA     23924       1    5043    2929    1998    2233
CTETRA     23925       1    2519    3158    2863    2520
CTETRA     23926       1    2233    2235    5093    5092
CTETRA     23927       1    3284    2233    2235    5093
CTETRA     23928       1    1996    1998    2233    1515
CTETRA     23929       1    3036    3037    3503    3536
CTETRA     23930       1    2037    3830    3913    4502
CTETRA     23931       1    3913    4502    3830    4492
CTETRA     23932       1    3913    4492    3735    4491
CTETRA     23933       1     979    2003    5420    3837
CTETRA     23934       1    4094    3913    3830    3735
CTETRA     23935       1    2880    3634    2998    6721
CTETRA     23936       1    1431    4100    4058    3997
CTETRA     23937       1    1430    1497    1453    1454
CTETRA     23938       1    2576    2567    1847    3576
CTETRA     23939       1    3467    4932    3693    4935
CTETRA     23940       1    1621    6515    1605    6440
CTETRA     23941       1     100      99    6589    3873
CTETRA     23942       1    2986    3874    5169    5170
CTETRA     23943       1     704    1369    3702    2254
CTETRA     23944       1    1604    1605    6919    6516
CTETRA     23945       1    3364    4008    3869    6660
CTETRA     23946       1    3874    1989    5173    1990
CTETRA     23947       1    3301    3934    4092    5814
CTETRA     23948       1     912    5738    4092    5663
CTETRA     23949       1    2191    3934    5815    4092
CTETRA     23950       1    3569    3923    5889    3897
CTETRA     23951       1    2521    2520    2582    3962
CTETRA     23952       1    6234     799    2733    4197
CTETRA     23953       1    4092    2191    5665    5740
CTETRA     23954       1     912    3772    5737    5662
CTETRA     23955       1    3781    4092    2191    5665
CTETRA     23956       1    4159    5588     912    5663
CTETRA     23957       1    2178    3301    5813    3569
CTETRA     23958       1    1483    1705    4087    1986
CTETRA     23959       1    1517    3781    4092    2191
CTETRA     23960       1    2984    1521    3780    4110
CTETRA     23961       1     548    2572     555     550
CTETRA     23962       1    2638    3450    2676    3454
CTETRA     23963       1    2083    2084    3608    4631
CTETRA     23964       1    2112    4631    2083    3608
CTETRA     23965       1    2083    2084    4631    4630
CTETRA     23966       1    1073    1023    1075    1455
CTETRA     23967       1     331    2284    6409    2337
CTETRA     23968       1    2284    6484    2337    6483
CTETRA     23969       1    3841     666    3449    4059
CTETRA     23970       1    3760    1577    2283    6559
CTETRA     23971       1     904    2091    2090     947
CTETRA     23972       1    3064    6334     330     331
CTETRA     23973       1    6410     338    6485     331
CTETRA     23974       1    1006    6483    2337    6482
CTETRA     23975       1    2877     574    2511    3957
CTETRA     23976       1    4149    4090    1469    4189
CTETRA     23977       1    2621    3719    2622    5733
CTETRA     23978       1    2621    3850    3719    5734
CTETRA     23979       1    2737    3109    1576    3113
CTETRA     23980       1    3663    3664    3666    2543
CTETRA     23981       1     436    2515     192     191
CTETRA     23982       1     801     815     800     798
CTETRA     23983       1    1720    1730    3146    1722
CTETRA     23984       1    3605    3606    3451    4189
CTETRA     23985       1    5807    4111    5731    2620
CTETRA     23986       1    3930    5585    5509    5584
CTETRA     23987       1    3930    5509    5585    5510
CTETRA     23988       1    2621    5734    3719    5733
CTETRA     23989       1    2109    1715    3146    3848
CTETRA     23990       1    1717    1715    2218    3848
CTETRA     23991       1    4146     943    5002     931
CTETRA     23992       1    2952    3958    5011    5000
CTETRA     23993       1     776     663    3684    3727
CTETRA     23994       1    2290    3958    3743    4999
CTETRA     23995       1    4146     931    5002    5006
CTETRA     23996       1     949     931    4146    5006
CTETRA     23997       1     436    2910    2886    2909
CTETRA     23998       1    1561    4942     242    4928
CTETRA     23999       1     658     134     641    3149
CTETRA     24000       1     242    1562    4929     476
CTETRA     24001       1     867    2013     946     869
CTETRA     24002       1    2409    3043    2410    3047
CTETRA     24003       1    4197    3535     860     799
CTETRA     24004       1     512    2887     192    4096
CTETRA     24005       1    4167    2606    5718    5717
CTETRA     24006       1    2977    4107    3737    3738
CTETRA     24007       1    3048    3042    4390    4385
CTETRA     24008       1    3789    2503    3904    4331
CTETRA     24009       1    3818    5640    3817    5715
CTETRA     24010       1    1463    1707     563     564
CTETRA     24011       1    3315    2041    3034    3816
CTETRA     24012       1    3817    5638    4091    5713
CTETRA     24013       1    5713    3817    5789    4091
CTETRA     24014       1    5791    3867    3818    4164
CTETRA     24015       1    3862    2785    2783    3820
CTETRA     24016       1    2198    3047    4393    4318
CTETRA     24017       1    4187    2198    3043    3047
CTETRA     24018       1    3816    3034    5564    2040
CTETRA     24019       1    5940    3820    5864    3867
CTETRA     24020       1    1866    3169    2356    4051
CTETRA     24021       1    3034    3317    5414    2127
CTETRA     24022       1    4395    2198    3401    3227
CTETRA     24023       1    3156    4200     816     818
CTETRA     24024       1    3227    2198    2930    4395
CTETRA     24025       1    2201    3365    3369    3431
CTETRA     24026       1    3033    5490    5566    5491
CTETRA     24027       1    2198    3043    3047    4318
CTETRA     24028       1    4210    2284    1577     338
CTETRA     24029       1    6411    6486    1578     341
CTETRA     24030       1    2889    2996     573    3678
CTETRA     24031       1    3725    3726     460    3396
CTETRA     24032       1    1707     564    2607     190
CTETRA     24033       1     331    1578    6410     338
CTETRA     24034       1    3929    3846    5165    3283
CTETRA     24035       1    3229    4245    3180    4220
CTETRA     24036       1    2797    3882    2347    3872
CTETRA     24037       1    3180    3621    3599    6845
CTETRA     24038       1    2980    6808    6732    6807
CTETRA     24039       1    2777     208    6363    4015
CTETRA     24040       1     685    2786    2787    2444
CTETRA     24041       1    3840    3866    3000    4059
CTETRA     24042       1     948     947     930     949
CTETRA     24043       1    3866    4059    5020    3000
CTETRA     24044       1    3641    3866    5022    4998
CTETRA     24045       1     905    3958    4146    3878
CTETRA     24046       1    3878    4996    3000    4997
CTETRA     24047       1    3958    3878    4999    5005
CTETRA     24048       1    3742    2291    2290    2348
CTETRA     24049       1    2290    3958    4999    5011
CTETRA     24050       1    6779    2240    6778    2302
CTETRA     24051       1    4146     943     905    3878
CTETRA     24052       1    3958    3878    5005    4146
CTETRA     24053       1    4171    2198    4187    2930
CTETRA     24054       1    2436    2435    4072    2606
CTETRA     24055       1    3042    4384    3483    4317
CTETRA     24056       1    3483    4309    2222    4317
CTETRA     24057       1    3493    4150    1878    3494
CTETRA     24058       1    4498    4309    3796    3483
CTETRA     24059       1    2093    4383    5418    4304
CTETRA     24060       1    2903    6763    5060    6764
CTETRA     24061       1     859    3875    5122    5099
CTETRA     24062       1     216    3099    2899    2931
CTETRA     24063       1     368     369    5123    3766
CTETRA     24064       1    1929    3028     356    1923
CTETRA     24065       1    4041     369     392     859
CTETRA     24066       1     297     298     299    4748
CTETRA     24067       1     298     299    4770     855
CTETRA     24068       1    2096    3326     493    2142
CTETRA     24069       1     485    4749     755    4741
CTETRA     24070       1     496     298    4747     855
CTETRA     24071       1    2647     873     898     918
CTETRA     24072       1     298    4770     299    4748
CTETRA     24073       1     194    5071    5087    5088
CTETRA     24074       1     512     192    1463    4096
CTETRA     24075       1    2025    1510    3586    2026
CTETRA     24076       1    3658    1957    6731    6656
CTETRA     24077       1    3279    3755    3345    3960
CTETRA     24078       1    6504    3573    6503    2578
CTETRA     24079       1     777     663     776    1698
CTETRA     24080       1    2578    3575    6503    6502
CTETRA     24081       1    3589    2002    3736    3686
CTETRA     24082       1    2533    2532    2512    2836
CTETRA     24083       1    1136    2533    2835    2531
CTETRA     24084       1    3576    3519    3954    3974
CTETRA     24085       1    1757    1760    4105    4119
CTETRA     24086       1    3446    4716    3809    4733
CTETRA     24087       1    2249    2238    2150    4435
CTETRA     24088       1    1796    3852    1797    3161
CTETRA     24089       1    1757    1755    1760    3971
CTETRA     24090       1    3438    2064    2172    3215
CTETRA     24091       1    5620    5695    3971    4113
CTETRA     24092       1    2064    2058    5698    2065
CTETRA     24093       1    2064    2058    5623    5698
CTETRA     24094       1    1756    4113    3971    2431
CTETRA     24095       1    3894    2441    2202    3151
CTETRA     24096       1    4337    5401    3288    4350
CTETRA     24097       1    5623    3215    2172    2064
CTETRA     24098       1    2210    3290    4620    4101
CTETRA     24099       1    3069    4566    4556    4565
CTETRA     24100       1    2210    4622    4101    4620
CTETRA     24101       1    3140    2210    3290    4619
CTETRA     24102       1    2964    4606    3138    3058
CTETRA     24103       1    3618     371    3075    2086
CTETRA     24104       1    2398    4719    4720    4728
CTETRA     24105       1    3763    2538    2594    2595
CTETRA     24106       1     306    4719    4729    4718
CTETRA     24107       1     306     305     910    4719
CTETRA     24108       1     523    5535    1344    5536
CTETRA     24109       1     163    4736    4737    4720
CTETRA     24110       1    4719    2398     306    4728
CTETRA     24111       1    4206    2225     611     406
CTETRA     24112       1     172    4737    3959    4755
CTETRA     24113       1    3398     663    1698    3841
CTETRA     24114       1    1598     918    5613    5538
CTETRA     24115       1    2037    4503    3830    4502
CTETRA     24116       1    1737    3755    3205    3585
CTETRA     24117       1    2430    3756    4467    2217
CTETRA     24118       1    2430    4467    3756    4511
CTETRA     24119       1    2001    3756    4509    4511
CTETRA     24120       1    3348    2430    4511    4512
CTETRA     24121       1    3109    3930    1576    5510
CTETRA     24122       1    2753    3756    2217    3864
CTETRA     24123       1    3900    3875     859    5099
CTETRA     24124       1     368    5122     859    3875
CTETRA     24125       1    3900    3875    5099    5113
CTETRA     24126       1     392     369    5103    5100
CTETRA     24127       1     392     859    5100    5105
CTETRA     24128       1    1317    1658    1320    1910
CTETRA     24129       1    5554    5555    3176    5479
CTETRA     24130       1    3287    3948    2074    4336
CTETRA     24131       1    1982    4066    4097    3688
CTETRA     24132       1    2149    4740    4741    4691
CTETRA     24133       1    4030     485     610     297
CTETRA     24134       1     934    3974    6576    6575
CTETRA     24135       1    5405    2102    4364    6968
CTETRA     24136       1    3590    3876    3753    4088
CTETRA     24137       1    2999    2002    3686    4251
CTETRA     24138       1    3134    2002    6849    3468
CTETRA     24139       1    2002    3686    4251    6848
CTETRA     24140       1     917    3736    2002    6848
CTETRA     24141       1     917    4088    2068    3753
CTETRA     24142       1     168    1971     170     169
CTETRA     24143       1    3399    1035    1698    1034
CTETRA     24144       1    2999    4256    3134    6849
CTETRA     24145       1    2735    3193    3184    3348
CTETRA     24146       1    1896    1892    4147    3277
CTETRA     24147       1    2631    3184    2424    2430
CTETRA     24148       1    2430    2424    2217    4466
CTETRA     24149       1    4509    4508    2037    2001
CTETRA     24150       1    2430    2217    4467    4466
CTETRA     24151       1    3131    5072    5075    5071
CTETRA     24152       1    3141    1923    6622    1657
CTETRA     24153       1     125     378     813      55
CTETRA     24154       1    6372    6371    6296    2611
CTETRA     24155       1    3782    3373    5269    5270
CTETRA     24156       1    3382    5279    3383    5280
CTETRA     24157       1    1654    1685    2153    6522
CTETRA     24158       1    2153    6521    6597    6522
CTETRA     24159       1    3782    3777    5269    3373
CTETRA     24160       1    3159    3009    6676    3395
CTETRA     24161       1    4113    5696    2431    2065
CTETRA     24162       1    2741    4069    2202    2581
CTETRA     24163       1    5546    3202    5470    3217
CTETRA     24164       1    3644    2441    3151    4283
CTETRA     24165       1    4137    3445    3650    3809
CTETRA     24166       1    2099     918    1598     163
CTETRA     24167       1    2150    4445    4450    3160
CTETRA     24168       1    3206    4340    4339    4352
CTETRA     24169       1    4326    2046    4454    2047
CTETRA     24170       1     413    4353    3891    4352
CTETRA     24171       1    4097    3287    2074    2047
CTETRA     24172       1    2047    4325    1164    3287
CTETRA     24173       1    3287    2047    4325    4324
CTETRA     24174       1    3287    2047    4324    2074
CTETRA     24175       1     185    3368    3893    3074
CTETRA     24176       1    3893    1530     187     186
CTETRA     24177       1    4155    1524    3849    3302
CTETRA     24178       1    2083    2084    4131    3608
CTETRA     24179       1    1842     911    4656    4640
CTETRA     24180       1     455    1576    1559    3930
CTETRA     24181       1    4643    1542    4645    3230
CTETRA     24182       1    1842    4641    3293    4627
CTETRA     24183       1    3230    2083    4643    3795
CTETRA     24184       1    1035    1001     998    3728
CTETRA     24185       1      98    6661    6736    6737
CTETRA     24186       1    3868    2758    3331    4035
CTETRA     24187       1    3882    1989    5162    5173
CTETRA     24188       1    5174    3872    5172    3874
CTETRA     24189       1    4070    2797    2776    2344
CTETRA     24190       1    3869    6511    3330    6510
CTETRA     24191       1    2986    3874    2281    5169
CTETRA     24192       1    2141    3622    4699    3143
CTETRA     24193       1    4157    3622    3143    2124
CTETRA     24194       1    3339    4553    3265    4554
CTETRA     24195       1    3972     372    3337    2210
CTETRA     24196       1    2207    3892    3455    3653
CTETRA     24197       1     630     668    2928    1502
CTETRA     24198       1    1713    2925    6529    6530
CTETRA     24199       1    1713    1475    6604    6529
CTETRA     24200       1    2164    4177    2043     902
CTETRA     24201       1    1039    6246    1038    6321
CTETRA     24202       1     218    1657    6548    6547
CTETRA     24203       1     933     217    2900    2899
CTETRA     24204       1    2387     377    1140    2397
CTETRA     24205       1     196     901    5088    5102
CTETRA     24206       1    3131    5072    3223    5075
CTETRA     24207       1    2009    3265    2008    2210
CTETRA     24208       1    2207    3075    5749    3968
CTETRA     24209       1    3635    3075    5675    5674
CTETRA     24210       1    5674    2187    5599     370
CTETRA     24211       1    3336    3972    4086    3337
CTETRA     24212       1    3728    1035    1698    3399
CTETRA     24213       1    2207    3968    5749    5748
CTETRA     24214       1    3073    2187     370    5524
CTETRA     24215       1    2207    3343    3968    5747
CTETRA     24216       1    3560    3635    3561     370
CTETRA     24217       1    1095     688    1099     595
CTETRA     24218       1    3967    3778    1477    1302
CTETRA     24219       1     713    5232     980    5246
CTETRA     24220       1    3967    3382    3778     713
CTETRA     24221       1    3967    3778    3003    1477
CTETRA     24222       1    2538    4787    2595    2580
CTETRA     24223       1    4666    4665    6948    1506
CTETRA     24224       1    2538    2580    4666    4787
CTETRA     24225       1    1504    2538    2580    4666
CTETRA     24226       1    1503    1504    2538    2580
CTETRA     24227       1    1506    4665    6948    6949
CTETRA     24228       1    3444    4717    4718    4721
CTETRA     24229       1    3809     741    3177    4733
CTETRA     24230       1    3444    4723    4717    4721
CTETRA     24231       1     305    3446    4734    4717
CTETRA     24232       1     306    4721    4718    4729
CTETRA     24233       1    3871    3177    3966     496
CTETRA     24234       1     318    4734    3177    4746
CTETRA     24235       1    3177    4765     741    3966
CTETRA     24236       1     776    1698    3727    3729
CTETRA     24237       1    2291    2947    4954    2950
CTETRA     24238       1    2608    2665    3770    1638
CTETRA     24239       1    3116    1454    6254    3117
CTETRA     24240       1    3525     189    4134    2607
CTETRA     24241       1     968     933    6476    3881
CTETRA     24242       1    3596    1684    3210    2401
CTETRA     24243       1    3801    1475    1476     712
CTETRA     24244       1     980    1094    5245    5231
CTETRA     24245       1     980    1302    5231    5232
CTETRA     24246       1     688    1099    5244    5245
CTETRA     24247       1    5244     688    5249     595
CTETRA     24248       1     971    2616    2617    1727
CTETRA     24249       1     776    3727    1698     663
CTETRA     24250       1    3326    4691    4692    4702
CTETRA     24251       1    3337    3265    2210    4622
CTETRA     24252       1    3747    2087    3746    3942
CTETRA     24253       1     891    4743    3143    4694
CTETRA     24254       1    3217    5621    3202    4113
CTETRA     24255       1    3476    3995    1755    4125
CTETRA     24256       1     171     170    3775    2418
CTETRA     24257       1    3978    3217    5471    5470
CTETRA     24258       1    5618    1760    3090    5619
CTETRA     24259       1    1877    2934    3975    1876
CTETRA     24260       1    3971    2431    5695    5694
CTETRA     24261       1    4182    3090    3971    3202
CTETRA     24262       1    3160    3161    2202    4444
CTETRA     24263       1    3894    4126    4128    2441
CTETRA     24264       1    2301    1998    1997    2929
CTETRA     24265       1     637    5254    4890    5258
CTETRA     24266       1    1180    4892    1998    1516
CTETRA     24267       1    1180    4893    1998    4892
CTETRA     24268       1    1998    1997    2929    5042
CTETRA     24269       1     723     711    6465    6390
CTETRA     24270       1    4204    2947    1205    3556
CTETRA     24271       1    3734     242     241    2269
CTETRA     24272       1     460    4920     228    4951
CTETRA     24273       1    2348    5010    3743    4998
CTETRA     24274       1    1560    2523    4939    4938
CTETRA     24275       1    3147    6789    6790    6714
CTETRA     24276       1     241     242    4943    2269
CTETRA     24277       1     772     969     933    2900
CTETRA     24278       1    3738    2756    3737    2977
CTETRA     24279       1    1922    1929     193     356
CTETRA     24280       1     357    5089    1050    5072
CTETRA     24281       1    1050     939    5090    5089
CTETRA     24282       1     930    4905     931    5006
CTETRA     24283       1    3131     194     357    5071
CTETRA     24284       1    3651     921     126     393
CTETRA     24285       1    2060    1050     357     901
CTETRA     24286       1    2363    5045    5046    5057
CTETRA     24287       1    2361    2426    1828     538
CTETRA     24288       1    2362    3284    2004    1515
CTETRA     24289       1    1140     373      49     127
CTETRA     24290       1    3470    3500     722    2387
CTETRA     24291       1    2935     415    4067     416
CTETRA     24292       1    2363    5057    2004    5045
CTETRA     24293       1     813    5095    3900    5099
CTETRA     24294       1    4163     859     813    3900
CTETRA     24295       1    1929    3130     938    1049
CTETRA     24296       1    4136    3167     740    3166
CTETRA     24297       1    3876    3134    3468    2002
CTETRA     24298       1    4143    4104    4183    3836
CTETRA     24299       1    3922    4386    4369    2478
CTETRA     24300       1    3422    3048    4385    3042
CTETRA     24301       1    3918    3524    4178    2180
CTETRA     24302       1    3550    2286    3895    2285
CTETRA     24303       1    2093    5492    5417    5416
CTETRA     24304       1    3431    3286    4399    3898
CTETRA     24305       1    3431    3898    4399    4400
CTETRA     24306       1    3320    3431    3286    4401
CTETRA     24307       1    3316    5488    5564    5489
CTETRA     24308       1    3904    4331    2503    4375
CTETRA     24309       1     460     666    4920    4919
CTETRA     24310       1    1001    1031    2949    1029
CTETRA     24311       1    3728     460    3449     666
CTETRA     24312       1    1877    4064    2934    2169
CTETRA     24313       1     997    1318    3133     796
CTETRA     24314       1    3975    2974    2975    4065
CTETRA     24315       1    3228    3735    4495    4491
CTETRA     24316       1    3347    2357    5727    5726
CTETRA     24317       1    3796    4152    4493    3858
CTETRA     24318       1    3228    4491    3913    3735
CTETRA     24319       1    2974    3737    2977    4109
CTETRA     24320       1    4143    3521    3836    3838
CTETRA     24321       1    3365    3227    3898    3431
CTETRA     24322       1    3227    4394    2930    3898
CTETRA     24323       1    2177    1529      57    2191
CTETRA     24324       1    4155    3849    2023    2022
CTETRA     24325       1    3335    4555    3337    4621
CTETRA     24326       1    3536    1178    4197     810
CTETRA     24327       1    1646     846     799    2733
CTETRA     24328       1    2318    5160    2254    2319
CTETRA     24329       1    2318    5161    2254    5160
CTETRA     24330       1    1592    5616    4105    5617
CTETRA     24331       1    3650    3809    4672    3633
CTETRA     24332       1    3644    3650    4680    4673
CTETRA     24333       1    4133    1119    1242     326
CTETRA     24334       1    3313    5469    3090    5544
CTETRA     24335       1     622     318    4753    4735
CTETRA     24336       1    3992    3446    3809    3177
CTETRA     24337       1    4672    2298    3477    3151
CTETRA     24338       1    1592    1594    5616    6931
CTETRA     24339       1    3910    3858    4497    4496
CTETRA     24340       1    3836    5494    5570    5495
CTETRA     24341       1    4104    4144    5643    5642
CTETRA     24342       1    2668    3709    4156    4180
CTETRA     24343       1    3927    4494    3858    4496
CTETRA     24344       1    2974    4109    2975    4065
CTETRA     24345       1    2037    2211    2038    3663
CTETRA     24346       1    2001    2430    3756    4511
CTETRA     24347       1    3562    2745    4130    3879
CTETRA     24348       1    2631    3184    2721    2710
CTETRA     24349       1    2137    3458    3858    3927
CTETRA     24350       1    4519    2211    2038    2037
CTETRA     24351       1    2735    2211    3348    2001
CTETRA     24352       1    2720    2710    2215    2216
CTETRA     24353       1    2735    3348    2430    2001
CTETRA     24354       1    3367    4527    3348    4525
CTETRA     24355       1    3890    3321    4403    4402
CTETRA     24356       1    3320    4334    3687    3716
CTETRA     24357       1    3890    3948    4403    3321
CTETRA     24358       1    2668    4184    4143    3709
CTETRA     24359       1    3842    4334    3890    4335
CTETRA     24360       1     106    4065    4108    2888
CTETRA     24361       1    3688    3921    3948    3321
CTETRA     24362       1    5632    2888    5557    5633
CTETRA     24363       1     783    2096     785    2097
CTETRA     24364       1    3267    2304    2075    2085
CTETRA     24365       1    2142     493     891    4693
CTETRA     24366       1    1366    5530     532     534
CTETRA     24367       1    3284    2233    5043    1515
CTETRA     24368       1    3284    2233    5093    5043
CTETRA     24369       1    2004    1515    3284    5044
CTETRA     24370       1     812    3284    3900    5094
CTETRA     24371       1    2656    1300    3967    1336
CTETRA     24372       1    2004    5054    5049    2425
CTETRA     24373       1    2004    1515    5044    5054
CTETRA     24374       1    4154    3347    2357    4160
CTETRA     24375       1    4507    2037    4519    2038
CTETRA     24376       1    3788    3913    3232    4501
CTETRA     24377       1    3232    4501    3913    4491
CTETRA     24378       1    3913    4492    3830    3735
CTETRA     24379       1    3334    4490    3927    4489
CTETRA     24380       1     970    4518    2038    4506
CTETRA     24381       1    1717    2217    2218    3864
CTETRA     24382       1    3457    3228    3913    3735
CTETRA     24383       1    1794    3206    1164    2046
CTETRA     24384       1    3160    2441    4444    2202
CTETRA     24385       1    3439    3204    3852    3276
CTETRA     24386       1    3894    3216    1238    3436
CTETRA     24387       1    3852    4447    1797    3161
CTETRA     24388       1    2065    1093    3798    1185
CTETRA     24389       1    3276    3161    4444    4448
CTETRA     24390       1     951    3313    5394    5469
CTETRA     24391       1    3625    5403    2921    1008
CTETRA     24392       1    4067    3244    3842     414
CTETRA     24393       1    3951    4336    3287    4346
CTETRA     24394       1    3890    4334    3320    4402
CTETRA     24395       1    1880    1679    2977    2974
CTETRA     24396       1    1163    1164    4341    3287
CTETRA     24397       1    3843    2128    5631    5706
CTETRA     24398       1    3951    3948    3287    4336
CTETRA     24399       1    3331    4028    6508    6509
CTETRA     24400       1    4047    6583    3332    6508
CTETRA     24401       1    3988    2281     966    3599
CTETRA     24402       1     170    3280     168    2944
CTETRA     24403       1    3356    3548    1695    3547
CTETRA     24404       1    3677    3823    6080    2571
CTETRA     24405       1    4114    3339    2828    3973
CTETRA     24406       1     371    2086    5677    5676
CTETRA     24407       1     371    2086    5751    3075
CTETRA     24408       1    3973    3522    4114    3265
CTETRA     24409       1    3635     371    5675    3075
CTETRA     24410       1    3925    5678    4127    2086
CTETRA     24411       1    5750    3075    5675    5751
CTETRA     24412       1    3075    5675    5751     371
CTETRA     24413       1      99    3873    6514    6589
CTETRA     24414       1    1766    1768    1788    3976
CTETRA     24415       1    3804    3125    3813    1367
CTETRA     24416       1    1621    6514    3873    6515
CTETRA     24417       1    3045    6812    4238    6813
CTETRA     24418       1    2345    3613     100    6740
CTETRA     24419       1    3989    2918    3908    3044
CTETRA     24420       1     100    6740    6664    6739
CTETRA     24421       1    3893    5516    3368    5515
CTETRA     24422       1    2020    5744    3388    5743
CTETRA     24423       1    2970    6745    5302    5304
CTETRA     24424       1    6737    6736      98    3045
CTETRA     24425       1    3776    3358    1032    3127
CTETRA     24426       1    6675    3009    6676    3159
CTETRA     24427       1    2401    6595    6519    6594
CTETRA     24428       1    2742    3549    1916    3546
CTETRA     24429       1    3782    5269    3777    5286
CTETRA     24430       1    3382    3777    3778    5225
CTETRA     24431       1    3003    5226    3777    5269
CTETRA     24432       1    2623    3601    2561    2579
CTETRA     24433       1    3796    4497    3858    4493
CTETRA     24434       1    4138    3042    3524    3483
CTETRA     24435       1    4143    3836    4183    3838
CTETRA     24436       1    2668    4180    4184    3709
CTETRA     24437       1    2093    3323     979    5418
CTETRA     24438       1    3910    4497    3523    4476
CTETRA     24439       1    3523    4498    3483    4308
CTETRA     24440       1    2765    3620     371    3618
CTETRA     24441       1    3388    3893    5667    5592
CTETRA     24442       1    3892    5671    3730    3343
CTETRA     24443       1    3730    3343    5671    5746
CTETRA     24444       1    3302    3730    5669    3388
CTETRA     24445       1    3368    3352    4663    5442
CTETRA     24446       1    3730    5745    3343    5746
CTETRA     24447       1    3420    6846    3621    4245
CTETRA     24448       1    3748    3420    4247    3749
CTETRA     24449       1    3420    3749    6846    4247
CTETRA     24450       1    3180    3420    3621    4245
CTETRA     24451       1     966    3180    3599    6844
CTETRA     24452       1    3685    3077    4243    3748
CTETRA     24453       1    4126    3644    2441    3151
CTETRA     24454       1    2702    2682    2540    2580
CTETRA     24455       1    2540    2682    4667    2580
CTETRA     24456       1    3263    4068    2393    2540
CTETRA     24457       1    2714    4668    2682    2713
CTETRA     24458       1    3844    5782    5783    2128
CTETRA     24459       1    4109    4065    2922    2919
CTETRA     24460       1    2169    2128    3843    5705
CTETRA     24461       1    3843    5555    5556     105
CTETRA     24462       1     106    3843     681     105
CTETRA     24463       1    3241    5703    1172    5778
CTETRA     24464       1    3843    5705    5629    2169
CTETRA     24465       1    3670    3844    5857    3845
CTETRA     24466       1    4097    3287    3948    2074
CTETRA     24467       1    5707    5632    5708    2922
CTETRA     24468       1     105    2888    5557    5632
CTETRA     24469       1    3163    3573    2575    3162
CTETRA     24470       1    1915    2742    3549    1916
CTETRA     24471       1    2114    6574    3983    6575
CTETRA     24472       1    3748    6847    3736    3749
CTETRA     24473       1    3685    3686    3748    4244
CTETRA     24474       1    3748    3736    6847    4244
CTETRA     24475       1    3576    3575    3954    3574
CTETRA     24476       1    2330    3796    3523    3858
CTETRA     24477       1    4184    4180    5647    5722
CTETRA     24478       1    4184    5721    4180    5722
CTETRA     24479       1    3918    4476    3523    4477
CTETRA     24480       1    3838    3836    4183    5646
CTETRA     24481       1    3938    4147    5648    5647
CTETRA     24482       1    5720    4184    4183    5645
CTETRA     24483       1    4184    3709    5721    5720
CTETRA     24484       1    2180    3918    3524    4307
CTETRA     24485       1     596    1997    1099    3514
CTETRA     24486       1    1713    2925    6530    6531
CTETRA     24487       1    5246     688    3091    5250
CTETRA     24488       1    3039    2925    3035    4053
CTETRA     24489       1     598    1180    5247    5243
CTETRA     24490       1    1196    2224    3952    1487
CTETRA     24491       1    1180    1998    4893    1997
CTETRA     24492       1    4116    2228    6385    6386
CTETRA     24493       1    2913     628    1713     668
CTETRA     24494       1     541    6610    6534    6609
CTETRA     24495       1    1712    2637    6681    6680
CTETRA     24496       1    1008     413    3891    4352
CTETRA     24497       1    4353    4340    1163    3891
CTETRA     24498       1    3176     105     106     104
CTETRA     24499       1    1795    2047    4097    2165
CTETRA     24500       1    3687    3842    4108    3412
CTETRA     24501       1    4182    1755    1238    1756
CTETRA     24502       1    4064    4109    2922    3737
CTETRA     24503       1    1794    1797    2046    2047
CTETRA     24504       1    1173    5703    1172    3242
CTETRA     24505       1    5477    3404    5552    5476
CTETRA     24506       1    4129    2678    4094    2788
CTETRA     24507       1    2522    4172    4194    3030
CTETRA     24508       1    4123     228    2306    2269
CTETRA     24509       1    3725     241     228    4123
CTETRA     24510       1     294    4950     241    4949
CTETRA     24511       1    3396    4951     294    4963
CTETRA     24512       1    3668     242     476    1562
CTETRA     24513       1     294     241    4950     228
CTETRA     24514       1    3733     539     540     624
CTETRA     24515       1    1996    1998    2929    2233
CTETRA     24516       1    1825    4019    3173     719
CTETRA     24517       1     725    6537    6461    3040
CTETRA     24518       1    1502     667    6458    6459
CTETRA     24519       1    2367    2372    3990    2552
CTETRA     24520       1    3492    2452    2194    2960
CTETRA     24521       1    3491    2194    2959    2960
CTETRA     24522       1    2195    3473    6850    4882
CTETRA     24523       1    2936    4094    3664    2753
CTETRA     24524       1    2066    2880    6723    6647
CTETRA     24525       1    3309    6572    4017    6571
CTETRA     24526       1     158     240    3734    3022
CTETRA     24527       1    2116    3136    6497    6498
CTETRA     24528       1    2116    3136    6572    6497
CTETRA     24529       1    6503    3573    3575    2578
CTETRA     24530       1    6154    3677    6155    4012
CTETRA     24531       1    4292     535    5453    2811
CTETRA     24532       1    5681    2303    5757    2075
CTETRA     24533       1    2075    2304    5756    5755
CTETRA     24534       1    2303    5682    2252    5681
CTETRA     24535       1    3170    3390    5761    5686
CTETRA     24536       1     493     891    4693    4742
CTETRA     24537       1    2304    2075    5756    5757
CTETRA     24538       1    2936    3664    2628    2753
CTETRA     24539       1    2626    2728    2745    3879
CTETRA     24540       1    2543     970    2474    2103
CTETRA     24541       1    5728    4049    3888    2357
CTETRA     24542       1    2103    5426    5501    5502
CTETRA     24543       1     970    2475    3788    2474
CTETRA     24544       1    3933    2542    3932    2104
CTETRA     24545       1    4011    3677    2571    3676
CTETRA     24546       1    2234    5126    3610    5112
CTETRA     24547       1    2004     812    5045    5044
CTETRA     24548       1     378     812     813    5095
CTETRA     24549       1    6535    6610    6534     541
CTETRA     24550       1    1464    1652    1703    1705
CTETRA     24551       1    6461    6386     725    4116
CTETRA     24552       1    3471     725    6537    6538
CTETRA     24553       1    2397    6765    6766    6690
CTETRA     24554       1     812    5094    3900    5095
CTETRA     24555       1    2401    2300    6444    1684
CTETRA     24556       1    3271    3270    2130    3052
CTETRA     24557       1    3783    3373    3372    2320
CTETRA     24558       1    2401    2300    6443    6444
CTETRA     24559       1    2401    2300    6518    6443
CTETRA     24560       1    3916    3052    6595    6594
CTETRA     24561       1    6520    6595    6519    2401
CTETRA     24562       1    3596    1685    1684    3916
CTETRA     24563       1    3797    3777    3782    3373
CTETRA     24564       1    3783    3782    3372    3373
CTETRA     24565       1    3692    6593    3052    6594
CTETRA     24566       1    3690    2300    6517    6518
CTETRA     24567       1    3663    3666    3564    3665
CTETRA     24568       1    5500    5425    5501    2103
CTETRA     24569       1    4160    3347    2357    5652
CTETRA     24570       1    3887    3889    5879    5804
CTETRA     24571       1    2357    4160    4162    4154
CTETRA     24572       1    4094    2037    3830    3913
CTETRA     24573       1    3404    5551    3414    1173
CTETRA     24574       1    1008    2921    5404    5403
CTETRA     24575       1    2756    3738    3737    3551
CTETRA     24576       1    3107    3530    3888    1854
CTETRA     24577       1    1706    1240    1119    2415
CTETRA     24578       1    1722    2112    1361    3608
CTETRA     24579       1    5661     912    5662    3772
CTETRA     24580       1    1545    5736    3850    3772
CTETRA     24581       1    2644    3772    3301     912
CTETRA     24582       1    3293    2112    4627    4628
CTETRA     24583       1    3887    5728    5804    5729
CTETRA     24584       1    2720    2216    2215    2110
CTETRA     24585       1    1546    1547    2056    4461
CTETRA     24586       1    5586     912    5661    1544
CTETRA     24587       1    3772    1545    5661     912
CTETRA     24588       1    1547    5437    4544    5436
CTETRA     24589       1    1308    1814    3124    1305
CTETRA     24590       1     455    5586    5511    5510
CTETRA     24591       1      98    6587    4008    6662
CTETRA     24592       1    3599    3988    3180     966
CTETRA     24593       1    4015     208    6437    2775
CTETRA     24594       1    4204    3556    1031    3802
CTETRA     24595       1    3725     294     460     228
CTETRA     24596       1    3937    3639    3640    3377
CTETRA     24597       1    2949    3150    3572    1029
CTETRA     24598       1     977    2348    3743    3641
CTETRA     24599       1     294     460     228    4951
CTETRA     24600       1    6134    1906    6135    2802
CTETRA     24601       1    3859    2314    2924    3418
CTETRA     24602       1    3489    2314    3418    4897
CTETRA     24603       1    4136    3453    3441    3442
CTETRA     24604       1    4046    3489    3418    2154
CTETRA     24605       1    2924    5134    3418    4897
CTETRA     24606       1    3418    5134    2248    5124
CTETRA     24607       1    2996    2154    3418    2385
CTETRA     24608       1    3726    3572    2951    3065
CTETRA     24609       1     949    3958    5000    4146
CTETRA     24610       1    6478     968    3114    3118
CTETRA     24611       1    3639    3640    6555    1005
CTETRA     24612       1    3640    1005    6480    6555
CTETRA     24613       1    2289    2290    2241     975
CTETRA     24614       1    2359    3000    3878     943
CTETRA     24615       1    4211    3835     338    2176
CTETRA     24616       1    3728     460    2189    3449
CTETRA     24617       1     993    3802    3807    1031
CTETRA     24618       1    1006    2283    6482    6557
CTETRA     24619       1    1006    1005    3802    6557
CTETRA     24620       1    2950    4917    3641    4918
CTETRA     24621       1     739    6390     723    6391
CTETRA     24622       1    2088    1038    1039    1084
CTETRA     24623       1    3130    5071    3131    5082
CTETRA     24624       1    3651     902     393     369
CTETRA     24625       1    1301     980     713    1302
CTETRA     24626       1     980    5246     688    3091
CTETRA     24627       1    1301    3091     713     980
CTETRA     24628       1    1661    3952    6449    3127
CTETRA     24629       1    2575    6505    3162    6580
CTETRA     24630       1    2575    3162    6579    6580
CTETRA     24631       1    3658    6583    3657    6582
CTETRA     24632       1    2764    2575    3657    3135
CTETRA     24633       1    3656    2764    1958    3658
CTETRA     24634       1    4037    3748    3749    3420
CTETRA     24635       1    6581    6506    3657    2575
CTETRA     24636       1    2575    6506    3135    6505
CTETRA     24637       1    3573    2575    3162    6579
CTETRA     24638       1    3650    3151    4126    2298
CTETRA     24639       1    1447    1514    1512    1971
CTETRA     24640       1    4125    3445    3643    3650
CTETRA     24641       1    3971    1757    1186    1760
CTETRA     24642       1     951    5468    3314    5469
CTETRA     24643       1    5543    3090    5618    4161
CTETRA     24644       1    1594    5690    6930    6931
CTETRA     24645       1    4673    3650    4723    4716
CTETRA     24646       1    2130    5273    5289    5285
CTETRA     24647       1    3815    3874    1990    1989
CTETRA     24648       1    2972    5162    3882    2983
CTETRA     24649       1    2983    2318    5217    5161
CTETRA     24650       1    3702    2254    1989    1990
CTETRA     24651       1     705    3814    1965    3935
CTETRA     24652       1    3988    2982    2280    3908
CTETRA     24653       1    3613    6590     100    6665
CTETRA     24654       1    4070    2346    2991    2280
CTETRA     24655       1    3215    3438    2171    2172
CTETRA     24656       1    3414    2172    2262    3406
CTETRA     24657       1    4125    3643    4126    3650
CTETRA     24658       1    3991    3978    3216    3217
CTETRA     24659       1    2441    3151    4284    2202
CTETRA     24660       1    3644    2441    4283    4128
CTETRA     24661       1    4674    3650    4680    3643
CTETRA     24662       1    3214    3217    4113    2064
CTETRA     24663       1    4188    3246    2111    3877
CTETRA     24664       1    1360    2633    2644    1544
CTETRA     24665       1    4635    1542    4634    2163
CTETRA     24666       1    2021    2163    1542    4635
CTETRA     24667       1    1529    3781    1517    2191
CTETRA     24668       1    1524    3730    3302    3388
CTETRA     24669       1    2163    3795    4634    4606
CTETRA     24670       1    1907     405    5909    5910
CTETRA     24671       1    2163    4607    3140    4606
CTETRA     24672       1    1522    1349     186    1541
CTETRA     24673       1    2023    3308    2021    4637
CTETRA     24674       1    1151    3853    1153    3855
CTETRA     24675       1    3308    3140    4607    4608
CTETRA     24676       1    3759     930     949    4904
CTETRA     24677       1    2270    3759     949    4903
CTETRA     24678       1    3223    1050     930    5073
CTETRA     24679       1    3385    3779    3782    5287
CTETRA     24680       1    3692    3916    3596    2401
CTETRA     24681       1    3372    3373    5263    2320
CTETRA     24682       1    3690    6518    2401    2300
CTETRA     24683       1    1777    1769    1767    1766
CTETRA     24684       1    3998    2129    3268    3829
CTETRA     24685       1    6433    4028    6508    6432
CTETRA     24686       1    2986    4031    3599    2281
CTETRA     24687       1    3656    1958    2920    3364
CTETRA     24688       1    4074    3420    3749    3621
CTETRA     24689       1    3908    3989    2991    2280
CTETRA     24690       1     928    3044    6810    4241
CTETRA     24691       1    2105    3239    3341    2997
CTETRA     24692       1    3902    3134    3341    2195
CTETRA     24693       1    3480    2448    3739    2839
CTETRA     24694       1    2764    3671    3657    2575
CTETRA     24695       1     456    2105    4264    2195
CTETRA     24696       1    2519    2193    3902    3341
CTETRA     24697       1    3082     744    3083    2998
CTETRA     24698       1    4936    2195    4882    2452
CTETRA     24699       1    3791    3980    3576    4196
CTETRA     24700       1    2522    4172    3491    4194
CTETRA     24701       1    3788    2037    4507    2038
CTETRA     24702       1    2753    3756    2001    2430
CTETRA     24703       1    2001    4508    2037    4519
CTETRA     24704       1    3433    2242    2834    2826
CTETRA     24705       1    2001    3756    2037    4509
CTETRA     24706       1    2734    5580    2745    5581
CTETRA     24707       1    4509    4503    3756    2037
CTETRA     24708       1    3293    4643    2083    4628
CTETRA     24709       1    1361    3608    2112    2083
CTETRA     24710       1    2112    3608    4632    4631
CTETRA     24711       1    3061    2948    3831    4012
CTETRA     24712       1     455    1547    1554    1546
CTETRA     24713       1    3781    4092    5664    5663
CTETRA     24714       1    3586    2026     911    2025
CTETRA     24715       1    4544    4461    4545    2056
CTETRA     24716       1    2630    3146    2631    2720
CTETRA     24717       1    1553    4159    5588    5587
CTETRA     24718       1    4092    1517    2644    3781
CTETRA     24719       1    1553    3586    1544    1554
CTETRA     24720       1    2196    1842    2112    4626
CTETRA     24721       1    2534    2519    2583    2521
CTETRA     24722       1    2196    2112    3609    4626
CTETRA     24723       1    1742    1361    1722    2112
CTETRA     24724       1    2196    3609    4633    4626
CTETRA     24725       1    3492    2452    2523    3467
CTETRA     24726       1    6852    4936    4934    2960
CTETRA     24727       1    2452    2523    3467    4935
CTETRA     24728       1    2808    2535    2987    3876
CTETRA     24729       1    2523    3467    4935    4938
CTETRA     24730       1    2523    4934    2960    4939
CTETRA     24731       1    2384    3155    3154    3492
CTETRA     24732       1    1560    1562    3467    4938
CTETRA     24733       1    3083    6854    1560    2960
CTETRA     24734       1    2896    3734     158    3379
CTETRA     24735       1    3225    2373    6419    2374
CTETRA     24736       1    3687    4334    3861    3716
CTETRA     24737       1     104    5405    5481    5406
CTETRA     24738       1    3951    3890    3948    4335
CTETRA     24739       1    3412    4332    3861    4333
CTETRA     24740       1    3951    3948    4336    4335
CTETRA     24741       1    3689    3374    3687    4108
CTETRA     24742       1    4134    2957    3741    2392
CTETRA     24743       1    3741    3233    5140    5133
CTETRA     24744       1    3741    3355    5128    2957
CTETRA     24745       1    3677    4014    4012    6154
CTETRA     24746       1    1080    1038    4062    2088
CTETRA     24747       1    3741    3233    2313    5140
CTETRA     24748       1    4134    2392    5138    4910
CTETRA     24749       1    3741    5128    3355    5133
CTETRA     24750       1    4026       6       5    4195
CTETRA     24751       1    6564    1445    6489     641
CTETRA     24752       1    4195     149     241     240
CTETRA     24753       1    2384    3492    2353    3155
CTETRA     24754       1    3063    6563    1445    6488
CTETRA     24755       1    4195    2953       6    3571
CTETRA     24756       1    3755    3585    1608    3960
CTETRA     24757       1       5    6638    2176    6637
CTETRA     24758       1    3726    2953    3065    3396
CTETRA     24759       1       8       7    6713    6714
CTETRA     24760       1     658     134    6641     641
CTETRA     24761       1    2177    2191      57    5666
CTETRA     24762       1    2336    2335    2350    2486
CTETRA     24763       1    3050    4159    5589    5588
CTETRA     24764       1    3781    4092    5665    5664
CTETRA     24765       1    3050    5589    4159    3781
CTETRA     24766       1    2366    2353    2522    3491
CTETRA     24767       1    3781    5663     912    4092
CTETRA     24768       1    2177    2191    5666    5665
CTETRA     24769       1    1723    3964    1730    3246
CTETRA     24770       1    1570    3292    2721    1576
CTETRA     24771       1    3930    1545    5660    3850
CTETRA     24772       1    2710    4547    3292    2215
CTETRA     24773       1    3718    2622    3719    5658
CTETRA     24774       1    3348    3184    2735    2430
CTETRA     24775       1    2734    3933    5505    4013
CTETRA     24776       1    3719    5658    2622    5733
CTETRA     24777       1    1937    1938    2242    3478
CTETRA     24778       1    1546    5435    1547    4461
CTETRA     24779       1    2196    3609    2215    4633
CTETRA     24780       1    5432    3186    3198    5431
CTETRA     24781       1    3079    3175    2061    3806
CTETRA     24782       1    3182    3821    3820    2604
CTETRA     24783       1    3175    2061    4411    2412
CTETRA     24784       1    3364    3332    6660    3869
CTETRA     24785       1    3332    3869    6585    6660
CTETRA     24786       1    3869    6585    3331    3332
CTETRA     24787       1    3658    6658    3332    6583
CTETRA     24788       1    6584    3331    6508    6509
CTETRA     24789       1    2918    3332    3364    3869
CTETRA     24790       1    6582    3658    3671    3657
CTETRA     24791       1    2663    2489    4122    3487
CTETRA     24792       1    3868    2763    3332    3331
CTETRA     24793       1     709    2915    1951    3988
CTETRA     24794       1    2336    2365    2447    2372
CTETRA     24795       1    3180    3621    6845    4245
CTETRA     24796       1    3180    3599    6844    6845
CTETRA     24797       1    3522    3265    3973    4295
CTETRA     24798       1    3326     493    2142    4692
CTETRA     24799       1    4202    2087    3942    2443
CTETRA     24800       1    4127     371    2086    5677
CTETRA     24801       1     535     784    2822    2843
CTETRA     24802       1    3732    3421    2955    3653
CTETRA     24803       1    2378    1925    1947    1938
CTETRA     24804       1    2142     891    4701    4693
CTETRA     24805       1     786    2142    2141    4701
CTETRA     24806       1    2141     891    3143    4694
CTETRA     24807       1    4700    3973    3622    2141
CTETRA     24808       1    1533    2023    3972    3308
CTETRA     24809       1    6641     133    6717     134
CTETRA     24810       1    1560    4939    2523    2960
CTETRA     24811       1    6856     744     133    6794
CTETRA     24812       1    1641    1642    1621    1620
CTETRA     24813       1    3573    4209    1959    2438
CTETRA     24814       1    2871    2107    2890    4279
CTETRA     24815       1    2576    3574    3573    3575
CTETRA     24816       1    2803    3582    2801    3984
CTETRA     24817       1    3029    6801    6725    6800
CTETRA     24818       1    2440    3686    3685    4250
CTETRA     24819       1    2772    6806    4222    6807
CTETRA     24820       1    2438    2575    3573    6655
CTETRA     24821       1    1457    3979      76    6803
CTETRA     24822       1    2011    4441    2205    4442
CTETRA     24823       1    2011    1797    4447    3161
CTETRA     24824       1    2011    2166    2205    4441
CTETRA     24825       1    2011    4453    1797    2165
CTETRA     24826       1    1796    1797    2011    3161
CTETRA     24827       1    1540    2979    3140    3308
CTETRA     24828       1     641    6490     989    6489
CTETRA     24829       1    6639    1445     641       7
CTETRA     24830       1     641    3164    6566    6641
CTETRA     24831       1    6566    6491    6567    3164
CTETRA     24832       1    2159     659    3164     641
CTETRA     24833       1    6486    2176    1577     338
CTETRA     24834       1       5    2176    6638    1445
CTETRA     24835       1    2176     338    6486    6487
CTETRA     24836       1    3063    3835     338     341
CTETRA     24837       1     158    4195     240     160
CTETRA     24838       1    2176    3171    6636    6561
CTETRA     24839       1    2176    6636    3171    6637
CTETRA     24840       1    2176    1445    6563    6638
CTETRA     24841       1    4033    3875     368     859
CTETRA     24842       1    1540    2023    3308    2021
CTETRA     24843       1     368    5120    3354    3213
CTETRA     24844       1     368    5100     859    5122
CTETRA     24845       1    4134    3525    2392    2817
CTETRA     24846       1    1577    6485     338    2284
CTETRA     24847       1    4211    1577    2176     338
CTETRA     24848       1    1577    3171    6561    6636
CTETRA     24849       1    2645    2646    2649    2650
CTETRA     24850       1    3760    1577    6635    3171
CTETRA     24851       1    1577    3171    6636    6635
CTETRA     24852       1    2949    1031    1205    1029
CTETRA     24853       1    6561    6486    2176    1577
CTETRA     24854       1    1577     338    6485    6486
CTETRA     24855       1    2946    3065    3062    4982
CTETRA     24856       1    1727    5251    5257    5252
CTETRA     24857       1    1771    1770    1785    1783
CTETRA     24858       1     598    1099    5243    5248
CTETRA     24859       1    1179    4892    1516    4891
CTETRA     24860       1    1997     596    1099    1180
CTETRA     24861       1    3592    1726    2637    1727
CTETRA     24862       1     630    1502     667     668
CTETRA     24863       1    2997    3239    4262    4263
CTETRA     24864       1    1994    4137    3633    3992
CTETRA     24865       1    2519    3903    2807    3341
CTETRA     24866       1    2576    2693    2561    2579
CTETRA     24867       1    3743    3878    3866    4997
CTETRA     24868       1    3641    3743    3866    4998
CTETRA     24869       1     877     880     879    1226
CTETRA     24870       1     993    2283    1006    3802
CTETRA     24871       1    3743    3866    4998    4997
CTETRA     24872       1    3958    3743    4999    3878
CTETRA     24873       1    2291    4916    4915    5012
CTETRA     24874       1    1337    1142    1343    1338
CTETRA     24875       1    2952    2894    5014    2241
CTETRA     24876       1     977    3641    3866    3449
CTETRA     24877       1    3641    5022    3449    4918
CTETRA     24878       1    3405    3206    2046    3204
CTETRA     24879       1    2866     817     818     584
CTETRA     24880       1    3843    5631     681     105
CTETRA     24881       1    1164    2046    4326    2047
CTETRA     24882       1    3252    3413    1171    1173
CTETRA     24883       1    5555    3176     105    3843
CTETRA     24884       1    3414    5550    2172    3413
CTETRA     24885       1    3416    5627    1173    5628
CTETRA     24886       1    3204    3852    3276    4449
CTETRA     24887       1    3811    3630    6667    6742
CTETRA     24888       1    2986    1990    5170    3846
CTETRA     24889       1    3874    1990    5173    5170
CTETRA     24890       1    2477    2712    3539    2017
CTETRA     24891       1    3633    2298    3477    4672
CTETRA     24892       1    1803    1804    3249    3252
CTETRA     24893       1     303    3992    3397     318
CTETRA     24894       1    3644    4672    4673    4679
CTETRA     24895       1    4679    3151    3644    4672
CTETRA     24896       1    3650    3809    4716    4672
CTETRA     24897       1    3445    3650    3809    4716
CTETRA     24898       1    3444    3445    4717    4723
CTETRA     24899       1    3446    4733    3177    4734
CTETRA     24900       1    3323    5569    5493    5568
CTETRA     24901       1    4103    2818    2093    3323
CTETRA     24902       1    2668    4156    4072    1889
CTETRA     24903       1    3709    5720    4184    4183
CTETRA     24904       1    2330    3483    3524    3523
CTETRA     24905       1    4183    3709    5720    5719
CTETRA     24906       1    4183    4184    5646    5645
CTETRA     24907       1    1503    2679    2731    2702
CTETRA     24908       1    2141    4700    4699    3622
CTETRA     24909       1    3622    4700    4699    4295
CTETRA     24910       1    4296    4295    4553    3522
CTETRA     24911       1    3339    4553    4295    3265
CTETRA     24912       1    4700    2828    3973    2141
CTETRA     24913       1    3628    3336    4086    3560
CTETRA     24914       1    3896    3862    2850    3817
CTETRA     24915       1    3048    3042    2198    4390
CTETRA     24916       1    4214    2002    2999    3134
CTETRA     24917       1    2799    4255    2440    4254
CTETRA     24918       1    3902    2452    3473    2195
CTETRA     24919       1    2440    4255    2999    4251
CTETRA     24920       1    3519    3029    3974    3983
CTETRA     24921       1    2999    6849    3134    2002
CTETRA     24922       1    2105    2999    4256    3134
CTETRA     24923       1    4273    3029    6801    2106
CTETRA     24924       1    2851    2042    2040    5641
CTETRA     24925       1    4178    3524    3918    3523
CTETRA     24926       1    1831    2618     845    1227
CTETRA     24927       1    6521    3916    1684    1685
CTETRA     24928       1    3385    5287    3782    5286
CTETRA     24929       1    1654    1655    6446    6447
CTETRA     24930       1     971    2637    2616    1727
CTETRA     24931       1    3667    3155    3492    1560
CTETRA     24932       1    3967     713    3778    1302
CTETRA     24933       1    3952    1476    1487    6451
CTETRA     24934       1    3800    3952     712    3799
CTETRA     24935       1     977    3641    3743    3866
CTETRA     24936       1    2290    3743    5010    4999
CTETRA     24937       1    2952    2290    5011    3958
CTETRA     24938       1    2283    3802    3760    6558
CTETRA     24939       1     975    3742    2289    2290
CTETRA     24940       1    3109    5433    3198    5508
CTETRA     24941       1    3155    3467    3492    1560
CTETRA     24942       1    3109    3113    4526    4510
CTETRA     24943       1    3463    2543    2474    2103
CTETRA     24944       1    3633    3477    2298    2471
CTETRA     24945       1    2211    2001    2037    4519
CTETRA     24946       1    2103    5426    5502    5427
CTETRA     24947       1    4110    1524    3780    3730
CTETRA     24948       1    3230    1542    3795    4643
CTETRA     24949       1    1361    2112    3293    2083
CTETRA     24950       1    3155    3154     478    3066
CTETRA     24951       1    2177    1530    1529    1509
CTETRA     24952       1    1509    3781    3050    4159
CTETRA     24953       1    2026    1842    4641    3293
CTETRA     24954       1    3886      57    3387    2020
CTETRA     24955       1    1541    3230    1542    3795
CTETRA     24956       1    1360    1509    1510    3586
CTETRA     24957       1     393     902    5101     369
CTETRA     24958       1     392     393    5103     369
CTETRA     24959       1     393     902    5106    5101
CTETRA     24960       1    2380    6764    5060    5055
CTETRA     24961       1     909    5108    5107    5086
CTETRA     24962       1    2274     193     126     921
CTETRA     24963       1    6615    2387    6691    6690
CTETRA     24964       1      49    5096    5047    5046
CTETRA     24965       1    3184    2430    4466    2424
CTETRA     24966       1    1547    5436    4544    4461
CTETRA     24967       1    3184    2424    4466    4465
CTETRA     24968       1    3348    3184    2430    4512
CTETRA     24969       1    5582    5581    3198    2622
CTETRA     24970       1    2737    2728    2725    3718
CTETRA     24971       1    1808    4069    1795    4071
CTETRA     24972       1     414    3842    3951    4347
CTETRA     24973       1    2102    1008    5404    4364
CTETRA     24974       1    1163    3951    3287    4346
CTETRA     24975       1     416    3287    3951    3948
CTETRA     24976       1    3688    3694    3890    3948
CTETRA     24977       1    3687    3842    3861    4334
CTETRA     24978       1      94    4751     495     610
CTETRA     24979       1    3326    2142    4698    4692
CTETRA     24980       1     172    5460    5536    5461
CTETRA     24981       1    3397     318     496     495
CTETRA     24982       1    1228     610      94     495
CTETRA     24983       1    5686     873    3170    1344
CTETRA     24984       1    1228     610     298     297
CTETRA     24985       1     610     297    4748     298
CTETRA     24986       1     495     298     610    4751
CTETRA     24987       1    2759     783    4157    4085
CTETRA     24988       1     610    4748     297    4752
CTETRA     24989       1    2099     303     910    1598
CTETRA     24990       1     318    4746    3177     496
CTETRA     24991       1    1596    3996    1611     304
CTETRA     24992       1    3385    3383    5286    3782
CTETRA     24993       1    3383    3782    3777    5286
CTETRA     24994       1    6670    6595    3384    3052
CTETRA     24995       1    3100    2153    6672    6673
CTETRA     24996       1    2960    4936    4934    2452
CTETRA     24997       1    6852    2960    2959    2194
CTETRA     24998       1    2477    3539    3633    2471
CTETRA     24999       1    2452    2194    2960    4936
CTETRA     25000       1    2194    2195    6851    4936
CTETRA     25001       1     456    4268    2194    6851
CTETRA     25002       1    2959    6852    2194    4268
CTETRA     25003       1    2193    2997    2890     456
CTETRA     25004       1    1680    2492    3236    3238
CTETRA     25005       1    3086    3106    1822    2892
CTETRA     25006       1    2225    4750      94     611
CTETRA     25007       1    1609    3465    3992     304
CTETRA     25008       1    2225    4755      94    4750
CTETRA     25009       1     318     495    4753     496
CTETRA     25010       1    1917    5988    3915    5913
CTETRA     25011       1    1609    1610     304    1598
CTETRA     25012       1      94    4754     495    4751
CTETRA     25013       1    4181    3599    3988    3180
CTETRA     25014       1    2281    6843     966    3599
CTETRA     25015       1    2281    3874    5174    5169
CTETRA     25016       1     966    6844    3599    6843
CTETRA     25017       1     966    4221    3180    6844
CTETRA     25018       1    2092    3180     966    4224
CTETRA     25019       1    6587    6663    3371    6588
CTETRA     25020       1    3998    3613    3612    2985
CTETRA     25021       1    6737      98    6738    3045
CTETRA     25022       1     826    6808    4235    6809
CTETRA     25023       1    3002    3117    3145    6405
CTETRA     25024       1     995    3958    3878    3743
CTETRA     25025       1     949    4904     930    5006
CTETRA     25026       1     975    3743    2290    3958
CTETRA     25027       1    2291    2290    2348    5012
CTETRA     25028       1    3565    3639    1005    3640
CTETRA     25029       1    2270    5014    5013    5009
CTETRA     25030       1     303     622     305     318
CTETRA     25031       1    3651     392     369     393
CTETRA     25032       1     813     859     392    5105
CTETRA     25033       1    4163    4213    2235    3900
CTETRA     25034       1     125      55     813     392
CTETRA     25035       1    1560    4939    2960    6854
CTETRA     25036       1    2219    1561    1560    4927
CTETRA     25037       1    1560    4927    1561    4938
CTETRA     25038       1    3154    3084    3710    3994
CTETRA     25039       1    3309    4017    3136    3962
CTETRA     25040       1    2522    3902    2193    3491
CTETRA     25041       1    3029    3983    6724    6725
CTETRA     25042       1    2997     456    4264    4268
CTETRA     25043       1    2880    6721    6796    6797
CTETRA     25044       1    1493    5234    1495    5233
CTETRA     25045       1    1492    1731    1495    1494
CTETRA     25046       1    3489    1493    5209    5234
CTETRA     25047       1    1493    5233    1495    3272
CTETRA     25048       1     493     485     755    4741
CTETRA     25049       1    3716    3320    4401    3431
CTETRA     25050       1    3716    3431    4401    4397
CTETRA     25051       1    3716    3320    4334    4398
CTETRA     25052       1    2947    6784    4976    4979
CTETRA     25053       1    3396     294    4951     460
CTETRA     25054       1    2951    4952    3396    4964
CTETRA     25055       1    1260     889    1364    3120
CTETRA     25056       1    3396    2189     460    4952
CTETRA     25057       1    1030    2283    3760    1577
CTETRA     25058       1    2947    3150    4979    4965
CTETRA     25059       1    2669    4184    2668    4205
CTETRA     25060       1    4193    3401    3048    2198
CTETRA     25061       1    2201    4396    3227    4400
CTETRA     25062       1    3715    3716    4373    4397
CTETRA     25063       1     392    3652    4041     813
CTETRA     25064       1     812     813    5095    3900
CTETRA     25065       1    2387     742    6541    6616
CTETRA     25066       1    3512    3471    3472    2361
CTETRA     25067       1      55    5096     813    5105
CTETRA     25068       1     813    5099    3900     859
CTETRA     25069       1    3644    4282    4128    4283
CTETRA     25070       1    3642    3644    4282    4128
CTETRA     25071       1    3643    3644    3650    4680
CTETRA     25072       1    3644    4283    3151    4679
CTETRA     25073       1    3313    5469    3314    3090
CTETRA     25074       1    1756    4113    3202    3971
CTETRA     25075       1    4115    1794    3405    3206
CTETRA     25076       1    1008    3203    4352    3891
CTETRA     25077       1     104    3176     105    5480
CTETRA     25078       1    2972    2983    3829    5218
CTETRA     25079       1    2131    5271    2413    3372
CTETRA     25080       1    3384    2153    3916    6596
CTETRA     25081       1    3998    1626    3901    3612
CTETRA     25082       1    4121    3006    3100    2292
CTETRA     25083       1    3594    2300    3690    3597
CTETRA     25084       1    3783    3372    2413    2320
CTETRA     25085       1    2485    1806    1805    3340
CTETRA     25086       1    2131    3372    3779    5271
CTETRA     25087       1    3228    3927    4494    3858
CTETRA     25088       1    4183    3838    4184    4143
CTETRA     25089       1    2678    4152    3299    2208
CTETRA     25090       1    1863    1887    1889    2815
CTETRA     25091       1    1596    6933    5541    5466
CTETRA     25092       1    3202    5620    5544    3090
CTETRA     25093       1    3445    3446    4716    3809
CTETRA     25094       1    3155     478    3154    3467
CTETRA     25095       1     305    3446     318    4734
CTETRA     25096       1    1332    2341    1613    2831
CTETRA     25097       1    1596    1585    5466    5541
CTETRA     25098       1    5615    1598    1596    1610
CTETRA     25099       1    1607     664    2878     663
CTETRA     25100       1    3684    2306     665    2308
CTETRA     25101       1    3684    2306    2308    2307
CTETRA     25102       1    3727     665    2306     666
CTETRA     25103       1     665     664    2878    5024
CTETRA     25104       1     665    2306    4921    4990
CTETRA     25105       1     666    4921    5026     665
CTETRA     25106       1    4920     666    4921    5026
CTETRA     25107       1    3396    4952     460    4951
CTETRA     25108       1    2946    3062    4981    4982
CTETRA     25109       1    4979    4983    3150    6785
CTETRA     25110       1    4216    3171       5    2176
CTETRA     25111       1    4166       5    4026     658
CTETRA     25112       1    3063    1445     989    6488
CTETRA     25113       1    3150    4982    4978    3065
CTETRA     25114       1    3458    3228    3927    3232
CTETRA     25115       1    2543    2104    3463    3665
CTETRA     25116       1    2737    3110    2736    3198
CTETRA     25117       1    3458    3334    3232    3927
CTETRA     25118       1    4095    3788    2037    3913
CTETRA     25119       1    3788    4502    2037    3913
CTETRA     25120       1    3788    3913    4501    4502
CTETRA     25121       1    2475    4501    3232    4500
CTETRA     25122       1    3788     970    2038    4506
CTETRA     25123       1    5500    3808    2564    3464
CTETRA     25124       1    5577    2103    2104    4160
CTETRA     25125       1     193     357     196     901
CTETRA     25126       1    1669     770     217     771
CTETRA     25127       1    3223    5073     930    5076
CTETRA     25128       1     354     352    5083    5078
CTETRA     25129       1    3223    1050    5073    5072
CTETRA     25130       1    3223     357    1050    5072
CTETRA     25131       1     357    1050    5089     901
CTETRA     25132       1     194    5088     357    5071
CTETRA     25133       1     357     901    5089    5088
CTETRA     25134       1    3759    3223     930    5076
CTETRA     25135       1    2069    2146    5186    3280
CTETRA     25136       1    2911    3392    2806    4106
CTETRA     25137       1    2146    5180    5186    3392
CTETRA     25138       1    5201    2146    5186    2069
CTETRA     25139       1    2146    2912    5201    5185
CTETRA     25140       1    2146    2911    5185    5179
CTETRA     25141       1    5179    5180    5186    2146
CTETRA     25142       1    3829    5217    2413    5266
CTETRA     25143       1    3271    2292    3384    2971
CTETRA     25144       1    3324    3241    3240    1895
CTETRA     25145       1    2146    3280    2806    3392
CTETRA     25146       1    3815    3702    1989    1990
CTETRA     25147       1    3882    1989    2983    5162
CTETRA     25148       1    2983    1989    5161    5162
CTETRA     25149       1    2251    2253    5532    5531
CTETRA     25150       1    3251    1809    1803    3252
CTETRA     25151       1    2149     485     493    4741
CTETRA     25152       1    1422    2442    1423    1421
CTETRA     25153       1    2142    2141    4701     891
CTETRA     25154       1    2251    2097     534    1366
CTETRA     25155       1    2097    1310    3326    1366
CTETRA     25156       1    2092    3229    3180    4220
CTETRA     25157       1    3229    3180    4245    3420
CTETRA     25158       1    3077    3229    4246    3420
CTETRA     25159       1    3229    3420    4245    4246
CTETRA     25160       1    1957    2144    2437    2772
CTETRA     25161       1    6759     624    6760    4889
CTETRA     25162       1     740     765    6240    3166
CTETRA     25163       1     811     812    3900     813
CTETRA     25164       1    2004    3284     812    5044
CTETRA     25165       1     188    3230    4650    4645
CTETRA     25166       1    4155     186    1116    2021
CTETRA     25167       1    3230    1542    4645     188
CTETRA     25168       1    1519      57    3388    1523
CTETRA     25169       1    2026    4657    3230    4642
CTETRA     25170       1    3230    4643    3293    4642
CTETRA     25171       1    4013    4536    5429    5430
CTETRA     25172       1    2211    3348    2001    4525
CTETRA     25173       1    2734    3186    3198    2736
CTETRA     25174       1    3193    4512    3348    4527
CTETRA     25175       1    3348    4511    2001    4525
CTETRA     25176       1    2734    5506    4013    5505
CTETRA     25177       1    2490    6493     645    6492
CTETRA     25178       1     645    2490    3164    2486
CTETRA     25179       1     135     744    4940    2219
CTETRA     25180       1    4026     658    3149     134
CTETRA     25181       1    3201    2350    4005    3164
CTETRA     25182       1    3155    1560    1562    3467
CTETRA     25183       1    3022    1561     242    1562
CTETRA     25184       1     158    3022     159     240
CTETRA     25185       1    2159    6566     641    3164
CTETRA     25186       1    6642    6567    3201    3164
CTETRA     25187       1     372    3308    4608    3140
CTETRA     25188       1    3308    4607    2163    4636
CTETRA     25189       1    3308    2163    4607    3140
CTETRA     25190       1    2021    3308    2163    4636
CTETRA     25191       1     372    4619    3140    4608
CTETRA     25192       1    1535    3386    4120    3731
CTETRA     25193       1    3972     372    3335    3337
CTETRA     25194       1    3344    5445    3849    5520
CTETRA     25195       1    3733     637     540    2197
CTETRA     25196       1     377    1140      49     125
CTETRA     25197       1    1713    1475     971    6604
CTETRA     25198       1    2616    6753    6677    6752
CTETRA     25199       1    1727    2617    3049    5252
CTETRA     25200       1    1822    3078    3181    1806
CTETRA     25201       1    2299    3199    1214    1216
CTETRA     25202       1     680    5259    5254    5258
CTETRA     25203       1    6350    3924    6426    2562
CTETRA     25204       1    2633    1554    1544    3587
CTETRA     25205       1    2440    4251    3686    4250
CTETRA     25206       1    2693    3162    1979    4151
CTETRA     25207       1    2432    4242    3077    4246
CTETRA     25208       1    3077    3748    3420    4247
CTETRA     25209       1    3685    3686    4244    4250
CTETRA     25210       1    2137    3910    3927    3858
CTETRA     25211       1    3918    3910    3523    4476
CTETRA     25212       1    4179    3422    2180    3524
CTETRA     25213       1    3275    3927    3910    4496
CTETRA     25214       1    3910    3523    4497    3858
CTETRA     25215       1    4104    3323    5568    5569
CTETRA     25216       1    2051    3235    4479    4475
CTETRA     25217       1    2137    3275    3927    3910
CTETRA     25218       1    3808    5499    5424    5423
CTETRA     25219       1    3346    3666    4095    3463
CTETRA     25220       1    2676    1708    2675    1710
CTETRA     25221       1    1405    1379    1587    1377
CTETRA     25222       1    3038    4053    3801    1475
CTETRA     25223       1    2161    2936    3664    2628
CTETRA     25224       1     688    5253    5251    3049
CTETRA     25225       1    2616    2617    6752    6677
CTETRA     25226       1    2972    5163    3882    5162
CTETRA     25227       1    2347    3882    5163    5172
CTETRA     25228       1    6840    6841    2346    2347
CTETRA     25229       1    3901    2972    2983    3829
CTETRA     25230       1    2345    6740     100    6739
CTETRA     25231       1     849     964     963    1861
CTETRA     25232       1    3882    5173    3874    1989
CTETRA     25233       1    2635    2627    2634    2630
CTETRA     25234       1    3972     372    2210    3140
CTETRA     25235       1    3337     372    4621    2210
CTETRA     25236       1    3635    5674    2207    3075
CTETRA     25237       1    3892    3306    5671    5596
CTETRA     25238       1    3972    4120     372    3308
CTETRA     25239       1     372    3140    4619    2210
CTETRA     25240       1    2060    3223     357    1050
CTETRA     25241       1    3840    3399    3728    3841
CTETRA     25242       1    6874    6775    4901    5079
CTETRA     25243       1     352    6774    6698    6773
CTETRA     25244       1     352    6774    5077    5079
CTETRA     25245       1     357     355     356    3223
CTETRA     25246       1    3414    3413    5551    5550
CTETRA     25247       1    3415    3438    2064    2172
CTETRA     25248       1    3404    3416    5552    1173
CTETRA     25249       1    5396    2249    5397    3991
CTETRA     25250       1    5549    2172    5548    5473
CTETRA     25251       1    5625    3413    2172    5550
CTETRA     25252       1    3262    2867     586     818
CTETRA     25253       1    3404    1173    3250    3416
CTETRA     25254       1    4433    2150    4445    4450
CTETRA     25255       1    3991    5396    5472    5397
CTETRA     25256       1    3216    3438    2171    3215
CTETRA     25257       1    3276    3852    4448    4449
CTETRA     25258       1    4115    3203    3206    3288
CTETRA     25259       1     947     949    3759     930
CTETRA     25260       1    3567    3118    3377    3640
CTETRA     25261       1    2089    2181    2091    2895
CTETRA     25262       1     905     949    4146    3958
CTETRA     25263       1    2029     772    1926    3001
CTETRA     25264       1     947    3759     354    3223
CTETRA     25265       1    2633    1742    1741    2634
CTETRA     25266       1    4129    2429    3346    2678
CTETRA     25267       1    2003    3837    5421    5420
CTETRA     25268       1    2093    5417    5493    5418
CTETRA     25269       1    2633    1559    2634    1711
CTETRA     25270       1    2042    5566    2040    5641
CTETRA     25271       1    2953    3396     294    4963
CTETRA     25272       1    2946    6785    6786    6710
CTETRA     25273       1    3725    2953    3396     294
CTETRA     25274       1    3572    2946    1205    3150
CTETRA     25275       1    3725    3396     460     294
CTETRA     25276       1    2946    6787    6786    4981
CTETRA     25277       1    2245    5254    5259    5255
CTETRA     25278       1    2637    6755    5256    5260
CTETRA     25279       1     597    5248     598    5255
CTETRA     25280       1    1179     598    1180    5247
CTETRA     25281       1    1726    5257    5255    5259
CTETRA     25282       1    1727    5256    5252    5257
CTETRA     25283       1    2913    2197    2928    6607
CTETRA     25284       1    4137    3444    3445    3446
CTETRA     25285       1    4723    3643    3445    3650
CTETRA     25286       1    3566     904     905     949
CTETRA     25287       1    3650    4674    4723    3643
CTETRA     25288       1    1994    3992    3633    3963
CTETRA     25289       1    2699    3871    3448     855
CTETRA     25290       1    2094    2253    2097    2252
CTETRA     25291       1     612    5603    4127    3925
CTETRA     25292       1    4042    2075     612    3925
CTETRA     25293       1    4697     785    2843     786
CTETRA     25294       1    3022    1561    4942     242
CTETRA     25295       1     240    4943     242    4942
CTETRA     25296       1     240     241    4943    4949
CTETRA     25297       1     149     241     240    4949
CTETRA     25298       1    6718     133    6643    2000
CTETRA     25299       1    2906    6689    2381    2380
CTETRA     25300       1    2903    6762    5065    6763
CTETRA     25301       1    1998    1999    1515    1996
CTETRA     25302       1    3471    2381    6688      75
CTETRA     25303       1    2427    1515    2004    5054
CTETRA     25304       1    3358    3127    6523    6524
CTETRA     25305       1    3776    1032    4215    3009
CTETRA     25306       1    3385    5286    3383    5296
CTETRA     25307       1    3383    3777    5280    5286
CTETRA     25308       1    3376    6747    6748    6672
CTETRA     25309       1    2130    3779    2971    5288
CTETRA     25310       1    2110    1742    1722    3609
CTETRA     25311       1    3609    4570    3608    2110
CTETRA     25312       1    3609    4570    2110    4569
CTETRA     25313       1    3609    2215    4633    4569
CTETRA     25314       1    2216    2110    4569    2215
CTETRA     25315       1    3566     975    2941    2952
CTETRA     25316       1    3609    2112    4632    4626
CTETRA     25317       1    3217    5622    4113    2064
CTETRA     25318       1    1238    4126    3977    3216
CTETRA     25319       1    4126    3644    4128    2441
CTETRA     25320       1    3202    5620    3971    4113
CTETRA     25321       1    5546    3217    5621    3202
CTETRA     25322       1    3978    5396    4280    5395
CTETRA     25323       1    3314    5468    3090    5469
CTETRA     25324       1    5620    3971    3090    3202
CTETRA     25325       1     974    3565    3807     993
CTETRA     25326       1    3202    5620    4113    5621
CTETRA     25327       1     455    5661    3930    1545
CTETRA     25328       1    3930    1545    5661    5660
CTETRA     25329       1    3880    1453    3148    3101
CTETRA     25330       1    1711    3930    3850    1545
CTETRA     25331       1     455    1544    5587    5586
CTETRA     25332       1    1545    1544    2644    1559
CTETRA     25333       1    4526    3110    4529    3113
CTETRA     25334       1    3017    3303    3305    3189
CTETRA     25335       1    3930    3719    5659    5584
CTETRA     25336       1    5659    3930    3850    3719
CTETRA     25337       1    1544     912    5587    5586
CTETRA     25338       1    2177    5590    3050    5589
CTETRA     25339       1    2710    2216    4549    4548
CTETRA     25340       1    6586    6661    6585    3869
CTETRA     25341       1    1619    1621     208    3873
CTETRA     25342       1    3122    3565    1021    3145
CTETRA     25343       1    3869    6661    6585    6660
CTETRA     25344       1    2280    4228    2281    6842
CTETRA     25345       1    3270    3630    2130    3052
CTETRA     25346       1    2028    2013    1558    2014
CTETRA     25347       1    3872    2281    5174    6842
CTETRA     25348       1    3044    4008    6661      98
CTETRA     25349       1    2241    2302     975    2941
CTETRA     25350       1     772    3001     969    2900
CTETRA     25351       1    2900     218     217    1657
CTETRA     25352       1    3001    2900    3141    6624
CTETRA     25353       1    3001    2900    6549    6550
CTETRA     25354       1    1657    6623    3141    6624
CTETRA     25355       1     947     930    3759    3223
CTETRA     25356       1     354    3759    5076    3223
CTETRA     25357       1    3001     969    6550    6551
CTETRA     25358       1     413    4362    2102    2076
CTETRA     25359       1    2089     904    2014     906
CTETRA     25360       1    3843     105    5556    5631
CTETRA     25361       1    3206    4168    1810    1164
CTETRA     25362       1    1794    4115    1809    1810
CTETRA     25363       1    5405    2076    5406     104
CTETRA     25364       1     414    3951    1163    4346
CTETRA     25365       1    1163    4346    3287    4341
CTETRA     25366       1    3983    2116    6573    6574
CTETRA     25367       1    3029    3974    3983    6725
CTETRA     25368       1    2116    6573    3309    3983
CTETRA     25369       1    2114    2116    6574    2117
CTETRA     25370       1    2193    3030    2890    2997
CTETRA     25371       1    3309    4172    3983    2066
CTETRA     25372       1     456    6851    2194    2195
CTETRA     25373       1    2871    2066    6723    6724
CTETRA     25374       1    3341    2105     456    2195
CTETRA     25375       1    3954    3575    3974    6576
CTETRA     25376       1    3635    3561     370     371
CTETRA     25377       1     370    2187    5599    5524
CTETRA     25378       1    2009    3337    3265    2210
CTETRA     25379       1    1936    3479    2391    1945
CTETRA     25380       1    3339    3337    4554    3265
CTETRA     25381       1    3480    2834    2836    2835
CTETRA     25382       1    3073    5449    5448    5524
CTETRA     25383       1    5483    5482     107    2888
CTETRA     25384       1    2018    2062    2063    3412
CTETRA     25385       1    1256    1817    2823    2955
CTETRA     25386       1    3687    3369    3716    3861
CTETRA     25387       1    2826    3528    2847    2884
CTETRA     25388       1    3890    3320    4334    3687
CTETRA     25389       1    2888     681    5632     105
CTETRA     25390       1    2919     681    2922    5633
CTETRA     25391       1    4361    2062    5407    1057
CTETRA     25392       1    2018    3412    2063    3904
CTETRA     25393       1    3315    2503    2484    2504
CTETRA     25394       1    4000    3589    3686    4214
CTETRA     25395       1    4037    3077    3420    3229
CTETRA     25396       1    3671    2575    6655    6580
CTETRA     25397       1    3671    2575    6580    6581
CTETRA     25398       1    6806    1957    6731    2772
CTETRA     25399       1    1457    4260      76    4253
CTETRA     25400       1    4000    4209    1957    1959
CTETRA     25401       1    6657    6582    3658    3671
CTETRA     25402       1    3671    3657    6581    6582
CTETRA     25403       1    2438    3573    6654    6655
CTETRA     25404       1      76    6802    4260    6803
CTETRA     25405       1    4000    2432    2437    3685
CTETRA     25406       1    3933    2734    2745    2746
CTETRA     25407       1    5652    5577    5653    4162
CTETRA     25408       1    3464    2103    2275    5500
CTETRA     25409       1    4162    5577    5653    5578
CTETRA     25410       1    3663    2001    2037    2211
CTETRA     25411       1    4160    3347    5652    5651
CTETRA     25412       1    5576    5651    3462    4160
CTETRA     25413       1     927    1152    1154    1528
CTETRA     25414       1    1685    2153    6596    3916
CTETRA     25415       1    3159    2617    6677    6752
CTETRA     25416       1    3006    2292    3403    5303
CTETRA     25417       1    4121    3403    2292    3385
CTETRA     25418       1    3797    3383    3782    3777
CTETRA     25419       1    3112    3123    2188    5300
CTETRA     25420       1    1528    1532    2881    1934
CTETRA     25421       1    3269    3782    3779    3372
CTETRA     25422       1    3916    2401    6520    1684
CTETRA     25423       1    3692    3916    6594    3052
CTETRA     25424       1    3084    3753    3710    4884
CTETRA     25425       1    3667    2353    3492    3155
CTETRA     25426       1    5152    3468    4883    3473
CTETRA     25427       1    1348    1721    1741    1347
CTETRA     25428       1    3710    4931    3693    4925
CTETRA     25429       1    3710    3693    4931    4882
CTETRA     25430       1    3710    3473    4882    4883
CTETRA     25431       1    3084    4884    3710    4925
CTETRA     25432       1    3934    2793    3569    3301
CTETRA     25433       1    3200    6645    3634    6570
CTETRA     25434       1    2998    6796    6720    6795
CTETRA     25435       1    3196    2998    3200    2000
CTETRA     25436       1    2366    3200    4017    2351
CTETRA     25437       1    2552    2512    3021    3231
CTETRA     25438       1    3620    4127    2086    3925
CTETRA     25439       1     786    2828    2822    4700
CTETRA     25440       1    4085    3620    4212    3561
CTETRA     25441       1    5527     613    5602    2810
CTETRA     25442       1    4085    4157    4114    2141
CTETRA     25443       1    2838    2828    3339    4560
CTETRA     25444       1    3455     370    2187    2207
CTETRA     25445       1    2828    3973    3339    4295
CTETRA     25446       1    1301     688    3091     980
CTETRA     25447       1    2793    2643    2677    3607
CTETRA     25448       1    1653    3800    3952    3127
CTETRA     25449       1    3123    3006    5300    3112
CTETRA     25450       1    3591    4208     971    2636
CTETRA     25451       1    5224    3091    2632    5281
CTETRA     25452       1    3049    5222    3091    5250
CTETRA     25453       1    4159    3781    5663     912
CTETRA     25454       1    4159    5663    3781    5588
CTETRA     25455       1    4159    3781    5589    5588
CTETRA     25456       1    3587    2196    1842    2112
CTETRA     25457       1    2196    1842    4640     911
CTETRA     25458       1    1553    3586    1554    2056
CTETRA     25459       1    4159     912    5588    5587
CTETRA     25460       1    2177    3893      57    1530
CTETRA     25461       1    1509    1530    3893    2177
CTETRA     25462       1    2631    2710    2424    3184
CTETRA     25463       1    3718    5658    3719    5583
CTETRA     25464       1    2721    2710    3291    3292
CTETRA     25465       1    3718    5582    2622    5658
CTETRA     25466       1    3718    3930    5584    3719
CTETRA     25467       1    1709    3718    2622    3719
CTETRA     25468       1    3186    4530    3110    4532
CTETRA     25469       1    2721    3291    2710    3184
CTETRA     25470       1    3930    5509    3109    3718
CTETRA     25471       1    3894    3160    2441    4128
CTETRA     25472       1    3243    1172    5776    3085
CTETRA     25473       1    3675    3160    3276    3161
CTETRA     25474       1    2249    4436    5397    5398
CTETRA     25475       1    2238    5399    4330    5398
CTETRA     25476       1    3991    3215    5473    5472
CTETRA     25477       1    3405    3288    2236    3407
CTETRA     25478       1    2150    4128    4434    4445
CTETRA     25479       1    2249    3991    5398    5397
CTETRA     25480       1    4161    5617    1760    5618
CTETRA     25481       1    5466    1586    1596    6933
CTETRA     25482       1    2065    1093    3218    3721
CTETRA     25483       1    1541    1525    2964    1540
CTETRA     25484       1    1759    1760    5617    4105
CTETRA     25485       1    2421    3444    4723    3445
CTETRA     25486       1    4137    3445    3809    3446
CTETRA     25487       1    4727    4722    4675    3111
CTETRA     25488       1    3685    4244    3748    4243
CTETRA     25489       1    3574    3575    6578    3573
CTETRA     25490       1    3791    2440    2999    3686
CTETRA     25491       1    6653    3573    2438    3574
CTETRA     25492       1    6577    3574    3954    3575
CTETRA     25493       1    3574    6578    3575    6577
CTETRA     25494       1    4000    3077    2432    3685
CTETRA     25495       1    3229    1952    1958    2092
CTETRA     25496       1    2106    3993    6726      76
CTETRA     25497       1    1150    3886    1519    3720
CTETRA     25498       1     100    6589      99    6588
CTETRA     25499       1    3872    2281    2797    3874
CTETRA     25500       1    2793    1517    2643    3607
CTETRA     25501       1     100    3873    6589    6590
CTETRA     25502       1      98    3371    6663      99
CTETRA     25503       1    1604    3613    6919    3873
CTETRA     25504       1    6839    2347    2346    2345
CTETRA     25505       1    3901    2972    3882    2983
CTETRA     25506       1    3559    2838    3339    3338
CTETRA     25507       1    4127    5678    3925    5603
CTETRA     25508       1     613    4127     612    5603
CTETRA     25509       1    5678    4127    2086    5677
CTETRA     25510       1    1154    1153    2391    1155
CTETRA     25511       1    3620    2086    4127     371
CTETRA     25512       1    2811     613    5527    2810
CTETRA     25513       1    2828    3973    4295    4700
CTETRA     25514       1     370    2207    5674    2187
CTETRA     25515       1    6536    6612      75    6537
CTETRA     25516       1      75    3471    6613    6688
CTETRA     25517       1     678     677    1921    2601
CTETRA     25518       1    3472    3040    6537     725
CTETRA     25519       1      75    6536    3040    6611
CTETRA     25520       1    2380      49    5046     378
CTETRA     25521       1    2362    2004    3284     812
CTETRA     25522       1    2362    2363    2004     812
CTETRA     25523       1     535     613     612    5529
CTETRA     25524       1     612    5679    3925    2075
CTETRA     25525       1    5680     612    2252    2075
CTETRA     25526       1    1150    3886    3387     791
CTETRA     25527       1     612    2075    5680    5679
CTETRA     25528       1    4092    3607    1517    2793
CTETRA     25529       1    3341    2105    3134    2999
CTETRA     25530       1    3974    3983    6725    6650
CTETRA     25531       1    2519    3341    3158    2193
CTETRA     25532       1    3818    5641    2040    5640
CTETRA     25533       1    5640    5639    2040    3817
CTETRA     25534       1    2860    4167    5642    5641
CTETRA     25535       1    2818    1801    4387    2180
CTETRA     25536       1    3401    4396    2504    4371
CTETRA     25537       1    3034    5490    3033    5415
CTETRA     25538       1    2039    1800    2093    1801
CTETRA     25539       1    3209    3365    3157    3369
CTETRA     25540       1    4171    2201    3401    3227
CTETRA     25541       1    5639    3360    3816    3817
CTETRA     25542       1    3939    3715    3826    2503
CTETRA     25543       1    2240    6778    5018    6779
CTETRA     25544       1    3802    6556    1005    6631
CTETRA     25545       1    3802    6557    1005    6556
CTETRA     25546       1    3001    2090    2029     772
CTETRA     25547       1    2947    2291    4955    4962
CTETRA     25548       1    3639    3802    1005    6631
CTETRA     25549       1    6558    3802    3760    6633
CTETRA     25550       1    1712    2913    6531    6606
CTETRA     25551       1    1781    1180    1179     598
CTETRA     25552       1    6168    3442    6092    3440
CTETRA     25553       1    2928     668    6532    6533
CTETRA     25554       1    1712    2913    6681    2596
CTETRA     25555       1     624     637    1304    4890
CTETRA     25556       1    1783    1899    2301    3514
CTETRA     25557       1     630     628    2928     668
CTETRA     25558       1    6534    1502    6609    6533
CTETRA     25559       1    3049    2617    4208    1644
CTETRA     25560       1    3009    3127    6599    6600
CTETRA     25561       1    3009    3127    6525     712
CTETRA     25562       1    3112    3376    1032    3123
CTETRA     25563       1    3453    3914    1033     857
CTETRA     25564       1    4007    3091    2632     713
CTETRA     25565       1    3453    3914     857     856
CTETRA     25566       1    3358    6598    1032    6599
CTETRA     25567       1    3009     712    6525    6526
CTETRA     25568       1    6601    6526    3395    3009
CTETRA     25569       1    3400     485     611     610
CTETRA     25570       1    1344     918    5611    5612
CTETRA     25571       1    4206     406     611    2149
CTETRA     25572       1     374    6543    1162    6542
CTETRA     25573       1    3638    1162     374    6543
CTETRA     25574       1    6542     374     742    1162
CTETRA     25575       1    1058     202     938    6620
CTETRA     25576       1    3141    3142    6624    6699
CTETRA     25577       1    6546    1058    6545    3426
CTETRA     25578       1    2338    6769    6770    6694
CTETRA     25579       1     921     902     196     393
CTETRA     25580       1    3501    2273    3498    1139
CTETRA     25581       1    3440    3441    2285    2287
CTETRA     25582       1     974    3807    3937     975
CTETRA     25583       1    3566    3958    2952     949
CTETRA     25584       1    2029    2090    2181    2091
CTETRA     25585       1    2698    6774     352    5079
CTETRA     25586       1    2302    6704    3377    6703
CTETRA     25587       1    1372     969    6551    6552
CTETRA     25588       1    6629    6554    3639    3377
CTETRA     25589       1    3377    3640    6553    6554
CTETRA     25590       1    3118    6477     969    6552
CTETRA     25591       1     132    4026    2050     134
CTETRA     25592       1    3149       7    6640     641
CTETRA     25593       1     160     149     240    4948
CTETRA     25594       1    2050    3147    6790     134
CTETRA     25595       1    4216    3726    3572    1029
CTETRA     25596       1    6706    6631    6707    2289
CTETRA     25597       1    2302    3377    6704    6629
CTETRA     25598       1    1106    2510    2642    1890
CTETRA     25599       1    1956    4037    3229    3077
CTETRA     25600       1    3658    3671    6656    6657
CTETRA     25601       1    1952    2982    2092     966
CTETRA     25602       1    1952    3180    2092    3229
CTETRA     25603       1    3658    6583    3332    3657
CTETRA     25604       1    2092    3229    4220    4219
CTETRA     25605       1    3656    3658    3364    3332
CTETRA     25606       1    2772    4219    2092    4226
CTETRA     25607       1    4221    3180    4220    4224
CTETRA     25608       1    3180    4220    4224    2092
CTETRA     25609       1    2982    4229    2092    4224
CTETRA     25610       1     826    6808    4227    4235
CTETRA     25611       1     928    3364    6735    3044
CTETRA     25612       1    1958    2980    3364    3658
CTETRA     25613       1    2180    3422    4389    3524
CTETRA     25614       1    1297     769    1414     643
CTETRA     25615       1    2294    3550    2355    2356
CTETRA     25616       1    2478    4388    3422    4385
CTETRA     25617       1    1801    4387    2180    4389
CTETRA     25618       1    3422    4384    3524    3042
CTETRA     25619       1    4088    3736     917    2912
CTETRA     25620       1    3589     917    3736    2002
CTETRA     25621       1    3667    1562    3155    1560
CTETRA     25622       1     917    6848    2002    5146
CTETRA     25623       1    2912    2068    5145     917
CTETRA     25624       1    2579    2576    3162    2578
CTETRA     25625       1     593     230     215     419
CTETRA     25626       1     917    3736    6848    5200
CTETRA     25627       1     917    5146    2068    5145
CTETRA     25628       1    2918    3364    4008    3869
CTETRA     25629       1    1952    2092    3180     966
CTETRA     25630       1    3656    4047    3332    2763
CTETRA     25631       1    3364    3658    6658    3332
CTETRA     25632       1    4188    1722    4131    3608
CTETRA     25633       1     911    1842    3586    2196
CTETRA     25634       1    1842    4627    3293    2112
CTETRA     25635       1    3230     187    2026    3293
CTETRA     25636       1    1842    4627    2112    4626
CTETRA     25637       1    2026    1842     911    4656
CTETRA     25638       1    6166    4136    3443    3442
CTETRA     25639       1    1544    5587    1553     455
CTETRA     25640       1    2096     891    2142     493
CTETRA     25641       1    2303    2253    2252    5682
CTETRA     25642       1    2303    2075    2252    2305
CTETRA     25643       1    2576    2579    2561    2577
CTETRA     25644       1     534    2252    5605     612
CTETRA     25645       1    2252    2075    5681    5680
CTETRA     25646       1    5605    5680     612    2252
CTETRA     25647       1    5608     649    5683    2253
CTETRA     25648       1    3335    3069    4086    3338
CTETRA     25649       1    2187    2207    5598    5597
CTETRA     25650       1    2187    2207    5674    5598
CTETRA     25651       1    3731    4638    4120    4637
CTETRA     25652       1    3073    4565    2148    5448
CTETRA     25653       1    3073    3560     370    2187
CTETRA     25654       1     644    4558    2838    3338
CTETRA     25655       1    3344    3386    3731    5446
CTETRA     25656       1    3344    1535    3731    3386
CTETRA     25657       1    3892    2207    5597    5672
CTETRA     25658       1    3069    3338    3335    4555
CTETRA     25659       1    2236    3276    2150    4432
CTETRA     25660       1    3414    3252    1173    3413
CTETRA     25661       1    3206    3204    4327    2046
CTETRA     25662       1    3204    4327    2046    4446
CTETRA     25663       1    2236    3276    4432    4449
CTETRA     25664       1     431    1898    1790    1335
CTETRA     25665       1    3003    5269    3777    3373
CTETRA     25666       1    3095    1477    3003    1478
CTETRA     25667       1    3003    3777    5226    3778
CTETRA     25668       1    4007    1644    2632    3091
CTETRA     25669       1    6677     971    3245    3393
CTETRA     25670       1    6677    2617     971    2616
CTETRA     25671       1    3395    6601    3009    6676
CTETRA     25672       1    3393    1475    6527    6528
CTETRA     25673       1    3393    6528    6604    1475
CTETRA     25674       1    3395    1475     712    6527
CTETRA     25675       1    6603    3393    6528    6604
CTETRA     25676       1    1944    1943    1932    1933
CTETRA     25677       1    3245    3159    6677    3395
CTETRA     25678       1    2483    2456    1277    2968
CTETRA     25679       1     556     550    3637    3636
CTETRA     25680       1    1654    6448    1661    6447
CTETRA     25681       1     556    3800    3636    3637
CTETRA     25682       1    1685    3916    6596    6521
CTETRA     25683       1    3974    3575    3576     934
CTETRA     25684       1    3519    3954    3974    3993
CTETRA     25685       1    2440    3239    2999    4255
CTETRA     25686       1    3029    2871    6799    6724
CTETRA     25687       1    2799    3979    4196      76
CTETRA     25688       1    2106    6801    4273    4265
CTETRA     25689       1    2997    3239    4263    2105
CTETRA     25690       1    3239    4256    2105    2999
CTETRA     25691       1    3029    2066    6724    3983
CTETRA     25692       1    3239    4256    2999    4255
CTETRA     25693       1    3726     460    3396    2189
CTETRA     25694       1    2348    3641    4998    3743
CTETRA     25695       1    3807    1005    3639    3802
CTETRA     25696       1    2950    4954    2348    4917
CTETRA     25697       1    2291    2348    2950    4954
CTETRA     25698       1    1031    3556    3760    3802
CTETRA     25699       1    2951    4953    2189    4952
CTETRA     25700       1    2290    2348    5010    3743
CTETRA     25701       1    2348    3641    4917    4998
CTETRA     25702       1    2290    5010    2348    5012
CTETRA     25703       1    6705    2289    6706    2239
CTETRA     25704       1    3842    3951    4335    3890
CTETRA     25705       1    2076    4363    3244    4356
CTETRA     25706       1    4067     414    3842    3951
CTETRA     25707       1    2062    2063    5409    2018
CTETRA     25708       1    2062    3244    4108     107
CTETRA     25709       1    2668    4180    1888    4205
CTETRA     25710       1    3836    5571    5646    3838
CTETRA     25711       1    3838    4184    5646    4183
CTETRA     25712       1    4178    3523    3918    3910
CTETRA     25713       1    3275    4496    3910    4475
CTETRA     25714       1    3837    5420    5496    5421
CTETRA     25715       1    2003    4481    5420    5421
CTETRA     25716       1    2051    3235    4475    3275
CTETRA     25717       1    3016    3808    5423    5498
CTETRA     25718       1    3014    3235    4480    4479
CTETRA     25719       1    3836    4183    5570    5569
CTETRA     25720       1    2180    4480    3918    4307
CTETRA     25721       1    2959     456    4268    2194
CTETRA     25722       1    2535    3903    3473    3876
CTETRA     25723       1    2242    2243    2449    2839
CTETRA     25724       1    2997     456    2105    4264
CTETRA     25725       1    2026    4642    3230    3293
CTETRA     25726       1    3849    5444    5520    5445
CTETRA     25727       1    3293    1362    4131    3230
CTETRA     25728       1    1116    2021     188    4646
CTETRA     25729       1    2026    1842    4656    4641
CTETRA     25730       1    4155    2023    3849    1524
CTETRA     25731       1    2964    3795    1542    2163
CTETRA     25732       1     188    2021    1542    4646
CTETRA     25733       1    2427    5050    2426    5051
CTETRA     25734       1     711     719    6314     765
CTETRA     25735       1    2824    2427    1515    2004
CTETRA     25736       1     637     540    2197    6759
CTETRA     25737       1    3796    3523    4498    3483
CTETRA     25738       1    3796    3740    4472    4493
CTETRA     25739       1    4309    3796    3483    2222
CTETRA     25740       1    3796    2222    4309    4472
CTETRA     25741       1    3796    4497    3523    3858
CTETRA     25742       1    2182    4138    2858    2857
CTETRA     25743       1    2330    3523    3796    3483
CTETRA     25744       1    1164     416    3287    1163
CTETRA     25745       1     416    1163    3951    3287
CTETRA     25746       1    4168    1164    3891    1163
CTETRA     25747       1    3242    5629    3416    5628
CTETRA     25748       1    1943    1930    1932    1933
CTETRA     25749       1    3249    3250    3252    1173
CTETRA     25750       1    6804    2437    2144    4259
CTETRA     25751       1    4000    3685    3748    3077
CTETRA     25752       1    4209    3574    2438    3573
CTETRA     25753       1    2437    3685    2432    4249
CTETRA     25754       1    3685    3077    4249    4243
CTETRA     25755       1    2440    4251    2999    3686
CTETRA     25756       1    3561    4127    5601     371
CTETRA     25757       1    2828    2811    2838    2832
CTETRA     25758       1    3269    2131    2413    3372
CTETRA     25759       1    3269    2130    2131    3779
CTETRA     25760       1    2970    2130    3052    2971
CTETRA     25761       1    1656    3596    1684    3210
CTETRA     25762       1    3692    3270    3595    3271
CTETRA     25763       1    3779    5270    3782    5287
CTETRA     25764       1    1117    1611    1759    3995
CTETRA     25765       1    3217    3202    5470    3978
CTETRA     25766       1    5472    3215    3217    3991
CTETRA     25767       1    2150    3276    4450    4432
CTETRA     25768       1    3214    3217    3202    4113
CTETRA     25769       1    3991    5472    5396    5471
CTETRA     25770       1    3216    2249    3978    3991
CTETRA     25771       1    3214    3217    2064    3215
CTETRA     25772       1    1290     529    1943    1933
CTETRA     25773       1    6728    3979    6653    2438
CTETRA     25774       1    3791    2440    2799    3239
CTETRA     25775       1      76    2106    6801    6726
CTETRA     25776       1    2438    3573    2575    1959
CTETRA     25777       1    4250    2958    4249    3685
CTETRA     25778       1    3045    2991    4240    6811
CTETRA     25779       1      98    3989    3044    4008
CTETRA     25780       1    3045    6737    6813    6738
CTETRA     25781       1    3045    2991    2346    4238
CTETRA     25782       1      98    4008    6661    6662
CTETRA     25783       1    3045    6813    6737    6812
CTETRA     25784       1    2776      99      98     100
CTETRA     25785       1    6664     100    6739    6663
CTETRA     25786       1      98    3044    6736    6661
CTETRA     25787       1    2774    3371     208    2775
CTETRA     25788       1    3883    6663      98    6738
CTETRA     25789       1    2991    2280    4236     928
CTETRA     25790       1    2280    2281    3872    6842
CTETRA     25791       1    3872    2281    3874    5174
CTETRA     25792       1    3872    3882    5172    3874
CTETRA     25793       1    2347    3872    3882    5172
CTETRA     25794       1    3268    5218    3829    5267
CTETRA     25795       1    1626    3613    1604    3873
CTETRA     25796       1     529    1943    1930    2376
CTETRA     25797       1    2432    2772    3229    1956
CTETRA     25798       1       6    4960     160    4971
CTETRA     25799       1     160     240     159    4947
CTETRA     25800       1     134     641    6640    6641
CTETRA     25801       1     641     658    3164    6641
CTETRA     25802       1    3147    6789    4974    4967
CTETRA     25803       1     135    2050     159    4946
CTETRA     25804       1    4957    6792     135    6791
CTETRA     25805       1    2050    6791    4973    4957
CTETRA     25806       1    3147    4972    2050    4973
CTETRA     25807       1    1205    3171    6635    6710
CTETRA     25808       1    2949    2951    2950    2189
CTETRA     25809       1    4216    3571    3171    3572
CTETRA     25810       1    3556    3760    3802    6633
CTETRA     25811       1    1943    4057    4122    1940
CTETRA     25812       1    6560    6635    6559    1577
CTETRA     25813       1    2950    4917    2348    3641
CTETRA     25814       1    1678    1895    2492    3238
CTETRA     25815       1    2947    2950    2951    4965
CTETRA     25816       1    2950    2189    4918    3641
CTETRA     25817       1    1031    3760    2283    3802
CTETRA     25818       1    2951    2950    2189    4953
CTETRA     25819       1    3937    2302    3639    3377
CTETRA     25820       1    2941    2240    2894    2241
CTETRA     25821       1    2270    2952    5009     949
CTETRA     25822       1    2239    6781    6780    4914
CTETRA     25823       1    4204    2949    2947    2950
CTETRA     25824       1    4212    3925     612    4127
CTETRA     25825       1     786    2141    4700    4701
CTETRA     25826       1    4212    4127    3620    3925
CTETRA     25827       1    2828    3339    4560    4295
CTETRA     25828       1    4212     612     613    4127
CTETRA     25829       1     535    5530    5454    5529
CTETRA     25830       1    4085    2324    4114    4157
CTETRA     25831       1    3322    3401    2504    3922
CTETRA     25832       1    2478    4385    3422    3048
CTETRA     25833       1    3401    4392    3922    4386
CTETRA     25834       1    3694    3948    3951    3890
CTETRA     25835       1    5413    4377    3317    5412
CTETRA     25836       1    2478    3048    4386    4385
CTETRA     25837       1    1801    2478    4388    3422
CTETRA     25838       1    5409    6972    5410    2063
CTETRA     25839       1    4138    3042    3422    3524
CTETRA     25840       1    2860    5642    4144    4104
CTETRA     25841       1    2851    2860    5641    4167
CTETRA     25842       1    2859    3048    2478    3422
CTETRA     25843       1    3033    5566    2042    5491
CTETRA     25844       1    4126    3642    4128    3644
CTETRA     25845       1    4182    3202    3313    3090
CTETRA     25846       1    3362    1943    3487    4122
CTETRA     25847       1    3314    4161    3090    5543
CTETRA     25848       1    1592    1594    3459    4105
CTETRA     25849       1     951    1176    3111    3314
CTETRA     25850       1    3643    4674    4723    2421
CTETRA     25851       1    4126    3643    3642    3644
CTETRA     25852       1    3642    4680    3643    4681
CTETRA     25853       1     952    3313    5395    5394
CTETRA     25854       1    3642    4282    3644    4680
CTETRA     25855       1    1592    1759    5617    4105
CTETRA     25856       1    1755    1760    3090    4161
CTETRA     25857       1    2421    3444    4721    4723
CTETRA     25858       1    3978    3313    3202    5470
CTETRA     25859       1     541    3040    4116    6535
CTETRA     25860       1    1502     541    6609    2928
CTETRA     25861       1    3733     624     540     637
CTETRA     25862       1      75    6611    3040     541
CTETRA     25863       1     541    3040    6535    6536
CTETRA     25864       1    2824    2425    2427    2004
CTETRA     25865       1    2381     538    6687      75
CTETRA     25866       1    2824    2427    1516    1515
CTETRA     25867       1     811     125    2360     378
CTETRA     25868       1    4016    3040     541      75
CTETRA     25869       1    2427    1515    5054    5053
CTETRA     25870       1    5054    2427    2425    2004
CTETRA     25871       1     637    2245    1179    5254
CTETRA     25872       1    1801    3422    4388    4389
CTETRA     25873       1    4190    4178    4142    2137
CTETRA     25874       1    2860    2042    5641    5642
CTETRA     25875       1    3521    4179    4103    2818
CTETRA     25876       1    3014    2180    4480    3918
CTETRA     25877       1    2180    3524    4389    4307
CTETRA     25878       1    3344    3632    2148    5522
CTETRA     25879       1    5443    2022    3352    4661
CTETRA     25880       1    2023    3731    1535    4120
CTETRA     25881       1    3368    5441    5442    4664
CTETRA     25882       1    3886    2020    3780    3388
CTETRA     25883       1    2102    2921    2076    5405
CTETRA     25884       1     970    2275    4517    4506
CTETRA     25885       1    3194    2211    2038    4519
CTETRA     25886       1    3933    5504    2104    5579
CTETRA     25887       1    5513    5588    1553    3050
CTETRA     25888       1    5440    5515    5439    2025
CTETRA     25889       1    1720    3146    1742    1722
CTETRA     25890       1    1711    3719    2621    3850
CTETRA     25891       1    3193    3348    4512    3184
CTETRA     25892       1    2631    3193    2721    3184
CTETRA     25893       1    2721    3291    3184    3193
CTETRA     25894       1    2091    2952    2270     949
CTETRA     25895       1     950    2181    6701    6702
CTETRA     25896       1    2181    1372    6626    6701
CTETRA     25897       1    2698     352    6774    3142
CTETRA     25898       1     930     948     942     947
CTETRA     25899       1    2090    1372    3118     969
CTETRA     25900       1    1943    3615    4122    4057
CTETRA     25901       1    2895    3377    6628    6703
CTETRA     25902       1    2184    5478    5402    5477
CTETRA     25903       1     413    3891    4353    1163
CTETRA     25904       1    3340    5774    4034    2200
CTETRA     25905       1    4338    4350    3288    3203
CTETRA     25906       1    3416    3176    5554    5629
CTETRA     25907       1    5479    5554    5478    2921
CTETRA     25908       1    3242    3416    3250    1173
CTETRA     25909       1    3203    3206    4338    4339
CTETRA     25910       1    2921    5479    5404    5403
CTETRA     25911       1    4064     681    3843    2128
CTETRA     25912       1    3416    1173    5627    5552
CTETRA     25913       1    3625    5403    1008    3203
CTETRA     25914       1    3405    3288    3206    3204
CTETRA     25915       1    3288    4338    3206    4342
CTETRA     25916       1    2262    5400    4344    5399
CTETRA     25917       1    3206    2046    4327    4326
CTETRA     25918       1    3206    1164    4326    4340
CTETRA     25919       1    3206    4327    3204    4342
CTETRA     25920       1    3891    1164    3206    4340
CTETRA     25921       1    4085     786    2141    2828
CTETRA     25922       1    2822     786     784    4085
CTETRA     25923       1    4293    2822    4710    4292
CTETRA     25924       1     613    2811    5452    5453
CTETRA     25925       1    3073    5449    4562    4568
CTETRA     25926       1    3559    2838    2828    3339
CTETRA     25927       1    3038    3039    4053    1713
CTETRA     25928       1    1961    3596    3856    1656
CTETRA     25929       1    1304    1179    1516    4891
CTETRA     25930       1    2245    5247    1179    5254
CTETRA     25931       1     539    2361     538    2426
CTETRA     25932       1     539     624    1304    2426
CTETRA     25933       1    1304    2427    2426    5051
CTETRA     25934       1    4204    2291    2947    3556
CTETRA     25935       1    3065    2951    3396    4964
CTETRA     25936       1    3571    3062    3065    2953
CTETRA     25937       1    3726    3065    2951    3396
CTETRA     25938       1    3726    3396    2951    2189
CTETRA     25939       1    1029    1577    3760    3171
CTETRA     25940       1    2951    4965    2950    4953
CTETRA     25941       1    2982     966    4228    4223
CTETRA     25942       1    2982    4224    2092     966
CTETRA     25943       1    2982    4224     966    4223
CTETRA     25944       1    2280    6842    3872    4234
CTETRA     25945       1    3989    2991    3045    3044
CTETRA     25946       1     826    2092    4229    4225
CTETRA     25947       1     826    6808    2980    6807
CTETRA     25948       1    2772     826    2980    6807
CTETRA     25949       1    2816    2467    2738    2468
CTETRA     25950       1    2738    2816    3647     437
CTETRA     25951       1     486    3381    4912    2468
CTETRA     25952       1    3381    2468    2738    4912
CTETRA     25953       1     486    2469    4913    7033
CTETRA     25954       1    3158    3341    3519    3030
CTETRA     25955       1    3341    2997     456    2105
CTETRA     25956       1    2871    4278    2107    4279
CTETRA     25957       1    3029    2871    6724    2066
CTETRA     25958       1      76    3979    3993    6727
CTETRA     25959       1    1457    6803    4260    4252
CTETRA     25960       1    4276    3083    2998    2880
CTETRA     25961       1    6595    3384    3052    3916
CTETRA     25962       1    3403    3385    3383    5296
CTETRA     25963       1    1442    1883    2331    2857
CTETRA     25964       1    3384    6746    3100    6671
CTETRA     25965       1    3384    3100    2153    6671
CTETRA     25966       1    2130    5288    2131    3779
CTETRA     25967       1    2771    3205    1737    3755
CTETRA     25968       1    3759    4904     949    4903
CTETRA     25969       1    2090    1372     969    3001
CTETRA     25970       1    3759    5076     930    4904
CTETRA     25971       1    2270     949    5001    4903
CTETRA     25972       1       7    1445    6638    6639
CTETRA     25973       1    6564    6639    1445     641
CTETRA     25974       1    2678    2208    1881    4152
CTETRA     25975       1    3201    3197     133    4005
CTETRA     25976       1    4195     240     160     149
CTETRA     25977       1       7    6640     641    6639
CTETRA     25978       1       5       7    1445    6638
CTETRA     25979       1    3062    4970    2953    4969
CTETRA     25980       1    3147       8       6    4968
CTETRA     25981       1    2452    4935    3693    4931
CTETRA     25982       1    2452    2194    4936    2195
CTETRA     25983       1    4934    2523    2960    2452
CTETRA     25984       1    2452    2523    4935    4934
CTETRA     25985       1    4882    3693    4931    2452
CTETRA     25986       1    2678    3299    4152    4094
CTETRA     25987       1    3543    3075    5749    5824
CTETRA     25988       1    3543    5749    3075    3968
CTETRA     25989       1    3543    3968    2030    5823
CTETRA     25990       1    2049    3075    5825    1747
CTETRA     25991       1    3543    3350    5899    5898
CTETRA     25992       1    5823    5898    2030    3543
CTETRA     25993       1    3075    2049    5824    3543
CTETRA     25994       1    4114    2141    3973    4085
CTETRA     25995       1    2049    5900    1747    5825
CTETRA     25996       1     622     318     495    4753
CTETRA     25997       1    1586    4731    6934    4725
CTETRA     25998       1     305     318     622    4735
CTETRA     25999       1     622    4753     495    4754
CTETRA     26000       1    3382    2632    5224     713
CTETRA     26001       1    3010    3383    5279    5294
CTETRA     26002       1    3382    3010    3383    5279
CTETRA     26003       1    3382    3777    5225    5280
CTETRA     26004       1    3776    3127    1032    3009
CTETRA     26005       1     713    5224    3091    2632
CTETRA     26006       1    3376    6749    6673    6748
CTETRA     26007       1    1644    2632    3091    5281
CTETRA     26008       1    3322    3034    1800    2127
CTETRA     26009       1    2504    2201    4372    4396
CTETRA     26010       1    2503    4372    3715    4375
CTETRA     26011       1    3317    4379    5413    5414
CTETRA     26012       1    2484    4378    3922    4371
CTETRA     26013       1    4171    4193    2198    3401
CTETRA     26014       1    3862    4091    4040    3863
CTETRA     26015       1    3904    2503    3715    4375
CTETRA     26016       1    1209    2627    3310    2675
CTETRA     26017       1    3079    3365    3175    3898
CTETRA     26018       1    3334    3232    3927    4490
CTETRA     26019       1    3275    3334    3927    4489
CTETRA     26020       1    3334    3232    4490    4500
CTETRA     26021       1    1402    3169    3183    2696
CTETRA     26022       1    2432    4246    3077    3229
CTETRA     26023       1    2432    3229    4219    4246
CTETRA     26024       1    2432    4249    3077    4242
CTETRA     26025       1     709    3988    4181    4031
CTETRA     26026       1    2772    2092    4219    3229
CTETRA     26027       1    2432    4249    3685    3077
CTETRA     26028       1    2980    2772    6732    3658
CTETRA     26029       1    3829    2983    2413    5217
CTETRA     26030       1    2131    3829    2413    5266
CTETRA     26031       1    3829    2983    5217    5218
CTETRA     26032       1    3613    3873    1626     100
CTETRA     26033       1    3630    5274    3811    2129
CTETRA     26034       1    3811    6742    6666    6741
CTETRA     26035       1    2131    5265    2413    5271
CTETRA     26036       1    2990    2989    2987    3771
CTETRA     26037       1    3811    5268    6741    6916
CTETRA     26038       1    3811    3268    5274    5268
CTETRA     26039       1     104    2921    5480    5405
CTETRA     26040       1    2076    4355     413    4362
CTETRA     26041       1     416    1163     414    3951
CTETRA     26042       1    2136    3458    2678    4152
CTETRA     26043       1    3244    4347     414    4356
CTETRA     26044       1    1163    4355     413     414
CTETRA     26045       1    4353    1163    4355     413
CTETRA     26046       1     414    4346    1163    4355
CTETRA     26047       1     904    2091     947     949
CTETRA     26048       1     975    2952    3958    2290
CTETRA     26049       1    1967    2014    1558    1020
CTETRA     26050       1    2089    1372    2895    3377
CTETRA     26051       1    2698    2181    6700    6701
CTETRA     26052       1    1220    2678    2429    2788
CTETRA     26053       1    2952    5014    2270    5009
CTETRA     26054       1    5008    2290    5011    2952
CTETRA     26055       1    2239    2289    2241    2302
CTETRA     26056       1    2522    3491    4172    3962
CTETRA     26057       1    2880    4278    6797    4276
CTETRA     26058       1    2880    6798    6722    6797
CTETRA     26059       1    4271    6853    3083    2959
CTETRA     26060       1    4274    2871    6832    4273
CTETRA     26061       1    3666    3463    3665    2543
CTETRA     26062       1    6539     710    6540    2387
CTETRA     26063       1      55    5105     813     392
CTETRA     26064       1      55    5105     392    5104
CTETRA     26065       1    3471    3472    2361      75
CTETRA     26066       1     378     813      55    5096
CTETRA     26067       1     909    5098    5108    5109
CTETRA     26068       1      49    5047    5097    5048
CTETRA     26069       1     125      49     378      55
CTETRA     26070       1    4129    3664    4094    4095
CTETRA     26071       1     611     485    4752     610
CTETRA     26072       1     611     485    4740    4752
CTETRA     26073       1     172    5536    1344     918
CTETRA     26074       1    4206    2149     611     485
CTETRA     26075       1      94     610     611    4750
CTETRA     26076       1    2149     611     485    4740
CTETRA     26077       1    2648    1331    3390    1344
CTETRA     26078       1    2710    4465    3184    4513
CTETRA     26079       1    2725    3718    3719    3930
CTETRA     26080       1    3109    5508    3718    5509
CTETRA     26081       1    5510    3113    5435    1546
CTETRA     26082       1    3292    2215    4547    4546
CTETRA     26083       1    2196    2215    3292    4546
CTETRA     26084       1     911    3586    2056    2196
CTETRA     26085       1    2136    2678    3458    3493
CTETRA     26086       1    1512    1951    1513    2761
CTETRA     26087       1    3609    2215    2110    1742
CTETRA     26088       1    4080    2280    2281    3872
CTETRA     26089       1    2346    2280    3872    4234
CTETRA     26090       1     708    2917    3868    2762
CTETRA     26091       1     928    2280    4236    2982
CTETRA     26092       1    4070      98    3045    3883
CTETRA     26093       1    2280    2982    4228    4236
CTETRA     26094       1    3713    3003    3373    3095
CTETRA     26095       1    3100    3776    1032    4215
CTETRA     26096       1    3358    3127    6524    6599
CTETRA     26097       1    1032    3123    3100    4215
CTETRA     26098       1    3403    3383    3010    5294
CTETRA     26099       1      98    2776    3989    4009
CTETRA     26100       1    6748    3376    3112    3006
CTETRA     26101       1    2099     910     163    1598
CTETRA     26102       1    3959     910    4736     163
CTETRA     26103       1    3389      94     622     495
CTETRA     26104       1    3959     622    4754    4736
CTETRA     26105       1    2219    4927    1560    4926
CTETRA     26106       1    2219    1561    4927    4941
CTETRA     26107       1    2219    4926    1560    6854
CTETRA     26108       1     159    1561    2219    4941
CTETRA     26109       1    3861    4373    3716    4398
CTETRA     26110       1    4070    2776    4080    3989
CTETRA     26111       1    3412    3861    4348    4333
CTETRA     26112       1    5710    5635    5711    2045
CTETRA     26113       1    2062    4354    3412    4357
CTETRA     26114       1    4108    3244    3412    3842
CTETRA     26115       1    3715    3861    4373    3716
CTETRA     26116       1    3861    3716    4334    4398
CTETRA     26117       1    4179    1801    2180    3422
CTETRA     26118       1    2093    2818    1801    4367
CTETRA     26119       1    3322    2484    2127    3922
CTETRA     26120       1    2093    2818    4367    4304
CTETRA     26121       1    2564    4500    3334    4499
CTETRA     26122       1    2103    2275    5426     970
CTETRA     26123       1    3458    3334    2475    3232
CTETRA     26124       1    2475    3788    4501    4506
CTETRA     26125       1    2475    3788    3232    4501
CTETRA     26126       1    2275    4516    5425    5426
CTETRA     26127       1    4506    2475    3788     970
CTETRA     26128       1    4013    2542    5504    5429
CTETRA     26129       1    2130    2131    5288    5272
CTETRA     26130       1    2131    3779    5288    5271
CTETRA     26131       1    3269    2131    3372    3779
CTETRA     26132       1    3829    3270    2131    2413
CTETRA     26133       1    3933    3932    3665    2104
CTETRA     26134       1    3110    3291    3193    4528
CTETRA     26135       1    3932    2543    3194    2211
CTETRA     26136       1    3291    3193    4513    3184
CTETRA     26137       1    4159    3781     912    2644
CTETRA     26138       1    3109    3113    5435    5510
CTETRA     26139       1    1166    1984    2994    1985
CTETRA     26140       1    4120    4608     372    3308
CTETRA     26141       1    2023    2022    3731    4637
CTETRA     26142       1    4155    1523    3302    2108
CTETRA     26143       1    1116    2021    2022    4155
CTETRA     26144       1    4120    4608    3308    4637
CTETRA     26145       1    3335    4120    4609     372
CTETRA     26146       1     194     357    5088     196
CTETRA     26147       1     938    6771    3130    3028
CTETRA     26148       1    3130    5081    5069    5070
CTETRA     26149       1    1929     195     194    1049
CTETRA     26150       1    3591    1784    4208    2636
CTETRA     26151       1    1586    5540    2398    1598
CTETRA     26152       1     910    4719     305    4735
CTETRA     26153       1    2099    3959    2101     918
CTETRA     26154       1    5539    2398     163    5464
CTETRA     26155       1    3314    5542    4161    5543
CTETRA     26156       1    1596    1593    6931    1610
CTETRA     26157       1    4141    3838    5497    5496
CTETRA     26158       1    3235    3275    3910    4475
CTETRA     26159       1    4478    2180    4480    3014
CTETRA     26160       1    1888    4147    4205    4180
CTETRA     26161       1    4150    3016    5498    3808
CTETRA     26162       1    3909    3334    3275    4489
CTETRA     26163       1    4208     688    3049    3091
CTETRA     26164       1    3257    1032    6675    3009
CTETRA     26165       1    1644    3257    4215    1397
CTETRA     26166       1     596     598     595    1099
CTETRA     26167       1    3245    3159    2617    6677
CTETRA     26168       1    3257    3159    6675    1397
CTETRA     26169       1    3712    4007    3382    3967
CTETRA     26170       1    4215    1397    2188    2632
CTETRA     26171       1    1644    3091    5222    5223
CTETRA     26172       1    3200    2000    6644    3201
CTETRA     26173       1    3197    3200    3196    2349
CTETRA     26174       1    3200    6644    2000    6645
CTETRA     26175       1    3082     744    2219    1560
CTETRA     26176       1     744    4269    6795    6794
CTETRA     26177       1    2000    6644    3201    6643
CTETRA     26178       1    3038    1713    1475    2636
CTETRA     26179       1     135     159    2219    4941
CTETRA     26180       1    6794    6856    6793     133
CTETRA     26181       1    2127    4369    1800    2478
CTETRA     26182       1    2127    2478    3922    4369
CTETRA     26183       1    4370    3922    4386    4369
CTETRA     26184       1    3034    5414    5490    5415
CTETRA     26185       1    5487    3318    2484    3317
CTETRA     26186       1    3034    2040    5565    5564
CTETRA     26187       1    3401    2504    4396    2201
CTETRA     26188       1    3401    4386    2478    3048
CTETRA     26189       1    3998    3613    1626    3612
CTETRA     26190       1    2345    6815    6740    6739
CTETRA     26191       1    2347    3882    2972    5163
CTETRA     26192       1    4208    3049    1644    3091
CTETRA     26193       1    2617    1644    5222    5283
CTETRA     26194       1    3049     688    5253    5250
CTETRA     26195       1    3159    5290    6750    1397
CTETRA     26196       1     595    3931     688    5251
CTETRA     26197       1    5249    5253    5251     688
CTETRA     26198       1    3111    3642    3643    4681
CTETRA     26199       1    3978    2249    3285    4438
CTETRA     26200       1    3111    3312    4125    3642
CTETRA     26201       1    1215    3214    2064    3438
CTETRA     26202       1    3285    4282    3642    4281
CTETRA     26203       1    3065    4964    3396    4963
CTETRA     26204       1    3150    2951    3065    4964
CTETRA     26205       1    2953    4970    3065    4963
CTETRA     26206       1    2953    4963     294    4961
CTETRA     26207       1    3571    3572    6712    3171
CTETRA     26208       1    1310    4691     406    2149
CTETRA     26209       1     406     611    2149    4740
CTETRA     26210       1    2149     485    4741    4740
CTETRA     26211       1    6856     133     135    6793
CTETRA     26212       1       5       8    6713    6712
CTETRA     26213       1       6    2953     149    4960
CTETRA     26214       1       5       7     657    1445
CTETRA     26215       1    2953    4969    4960       6
CTETRA     26216       1    2953     149    4960    4961
CTETRA     26217       1     624    5051    2426    5064
CTETRA     26218       1     637    4891    1304    4890
CTETRA     26219       1    1304    2427    5053    1516
CTETRA     26220       1    1304    1516    5053    4891
CTETRA     26221       1    1999    1304    1179    1516
CTETRA     26222       1     623    6685     540    6760
CTETRA     26223       1     624    4889    4890    5064
CTETRA     26224       1    3074     185    4660     188
CTETRA     26225       1     185    4650     188    3230
CTETRA     26226       1    3368    3352    3074    4663
CTETRA     26227       1    3368    3352    5442    5517
CTETRA     26228       1     185    4650    3230    4657
CTETRA     26229       1     185    4657    2026    4659
CTETRA     26230       1     187     185     188    3230
CTETRA     26231       1     378    5095     813    5096
CTETRA     26232       1     378     812    5095    5045
CTETRA     26233       1    2363     812     378    5045
CTETRA     26234       1     752    3367    2211    4531
CTETRA     26235       1    3367    2211    4525    3348
CTETRA     26236       1    2735    3367    3193    3348
CTETRA     26237       1    2734    3186    4013    5506
CTETRA     26238       1    3933    3562    4130    3665
CTETRA     26239       1    3186    5431    4013    5506
CTETRA     26240       1    5506    5431    5507    3198
CTETRA     26241       1     597     598    5248     595
CTETRA     26242       1    1713    1475    6529    2925
CTETRA     26243       1    1726     597    5255    5257
CTETRA     26244       1     680     637    2245    2197
CTETRA     26245       1    2245     597     598    5255
CTETRA     26246       1    3039    4053    1713    2925
CTETRA     26247       1     597     595    5248    5251
CTETRA     26248       1    1727    5260    1726    2637
CTETRA     26249       1    3931     597    1727    5251
CTETRA     26250       1    4142    3235    3275    3910
CTETRA     26251       1    2137    3910    3858    3523
CTETRA     26252       1    3014    3235    3918    4480
CTETRA     26253       1    3837    2003    3521     979
CTETRA     26254       1    3235    3910    4476    4475
CTETRA     26255       1    4168    3891    1164    3206
CTETRA     26256       1    3203    3891    3206    4352
CTETRA     26257       1    4115    3203    3891    3206
CTETRA     26258       1     416     413     414    1163
CTETRA     26259       1    3891    4340    3206    4352
CTETRA     26260       1    2367    2552    3990    3136
CTETRA     26261       1    1384    2327    3020    3055
CTETRA     26262       1    3022    1561     159    4942
CTETRA     26263       1     160    4947    2050    4959
CTETRA     26264       1     149    4195    2953       6
CTETRA     26265       1     134    3149    6640     641
CTETRA     26266       1    2945    3637    3801    3799
CTETRA     26267       1     159    4942    1561    4941
CTETRA     26268       1     159    2050    4947    4946
CTETRA     26269       1    3038    1475    3801    2636
CTETRA     26270       1    3147     160    4026    2050
CTETRA     26271       1    2150    3160    4450    3276
CTETRA     26272       1    2172    3215    5473    2171
CTETRA     26273       1    2236    2237    3276    3439
CTETRA     26274       1     352    6698    6774    6699
CTETRA     26275       1    1058    1929    1922    1923
CTETRA     26276       1    6698    1923    6622    3141
CTETRA     26277       1    3028    3130     352    5084
CTETRA     26278       1    3130    1049    5070    5069
CTETRA     26279       1     193     194     196     357
CTETRA     26280       1    1592    1596    1611    1593
CTETRA     26281       1    1586    6934    5466    5391
CTETRA     26282       1    3996    3444    1584    2421
CTETRA     26283       1     306    3444     305    4718
CTETRA     26284       1    1586    4725    5391    1584
CTETRA     26285       1    1586    5465    5540    6933
CTETRA     26286       1    1584    4721     306    4730
CTETRA     26287       1    3312    3977    3642     952
CTETRA     26288       1    2302     975    2941    3937
CTETRA     26289       1    2091    2894    2952    2941
CTETRA     26290       1     950    6776    4901    6873
CTETRA     26291       1    2090    3001    2181    1372
CTETRA     26292       1    2894    2952    5014    2270
CTETRA     26293       1     353     354    3759    5074
CTETRA     26294       1    5015    5014    5013    2270
CTETRA     26295       1     353    4903    2270    4902
CTETRA     26296       1    3612    3884    2347    2972
CTETRA     26297       1    3612    2347    3882    2972
CTETRA     26298       1    1713    1787    3039     628
CTETRA     26299       1    2345    6814    6738    6813
CTETRA     26300       1    2776    3883     100      98
CTETRA     26301       1    6813    3045    2346    4238
CTETRA     26302       1    2797    2347    2346    3872
CTETRA     26303       1    6814    4231    6813    2345
CTETRA     26304       1    2770    3635    3620    3561
CTETRA     26305       1    3338    3337    3335    4555
CTETRA     26306       1    2838    3338    4558    4560
CTETRA     26307       1    3335    4621    3337     372
CTETRA     26308       1    3335     372    4609    4621
CTETRA     26309       1    3386    3335    4609    4556
CTETRA     26310       1    2980    6658    3364    3658
CTETRA     26311       1    6732    6657    6733    2980
CTETRA     26312       1    2920     928    2980     826
CTETRA     26313       1    3658    1959    3671    2764
CTETRA     26314       1    6659    6734    6658    3364
CTETRA     26315       1    3479    3623    1945    2143
CTETRA     26316       1    2772    2980    6732    6807
CTETRA     26317       1    2097     784     532     785
CTETRA     26318       1    3479    2246    3785    3794
CTETRA     26319       1    4702    4698    3326     785
CTETRA     26320       1    5456    5531    5455    2251
CTETRA     26321       1    2097     532     784     534
CTETRA     26322       1    1366     532    4712    4709
CTETRA     26323       1    1310    4691    3326    4703
CTETRA     26324       1    4078    1310     406    2149
CTETRA     26325       1    2381      75    6687    6688
CTETRA     26326       1    3502    3328    3327    1826
CTETRA     26327       1    2425    2004    2363    5057
CTETRA     26328       1    5055    5059    2380    6765
CTETRA     26329       1    2824    2427    2425    2426
CTETRA     26330       1    2381    2903    6762    1828
CTETRA     26331       1    2380    5056    2363    5046
CTETRA     26332       1    4178    3014    3235    3918
CTETRA     26333       1    2818    4478    2180    4305
CTETRA     26334       1    3521    4179    2818    2180
CTETRA     26335       1     783     786     785    2142
CTETRA     26336       1    3479    3785    2246    3478
CTETRA     26337       1    4157    2141    3143    3622
CTETRA     26338       1    6651    6726    6650    3974
CTETRA     26339       1    3974    6726    6650    6725
CTETRA     26340       1    3954    3993    6651    3974
CTETRA     26341       1      76    6727    6803    3979
CTETRA     26342       1    3791    3980    2799    2440
CTETRA     26343       1    3993    6651    6727    3954
CTETRA     26344       1    6726    2106    6801    3029
CTETRA     26345       1    3003    3713    3967    3095
CTETRA     26346       1    2292    3385    3403    5296
CTETRA     26347       1    3112    5305    5300    6901
CTETRA     26348       1    1944    1949    1936    1945
CTETRA     26349       1    3403    5296    3383    5294
CTETRA     26350       1    1828    2425    5062    2426
CTETRA     26351       1    2903    5061    2425    5057
CTETRA     26352       1    2004    2361    2425    2363
CTETRA     26353       1    2381    2903    2425    2363
CTETRA     26354       1    2425    2004    5057    5049
CTETRA     26355       1    2026    1510    3586    1842
CTETRA     26356       1    2644    3781     912    4092
CTETRA     26357       1    2025    3368    3893     185
CTETRA     26358       1    6042    6041    3794    2143
CTETRA     26359       1    1553    3050    3051    5513
CTETRA     26360       1    1553    5587    1544    4159
CTETRA     26361       1    1360    3586    1510    3587
CTETRA     26362       1    3893     185     187    2025
CTETRA     26363       1    3198    3718    5583    5582
CTETRA     26364       1    3665    2104    4160    5578
CTETRA     26365       1    3198    3718    5582    2622
CTETRA     26366       1    3198    3718    5508    5583
CTETRA     26367       1    3186    3367    4532    3193
CTETRA     26368       1    2737    3113    3291    3110
CTETRA     26369       1    6654    6653    3573    2438
CTETRA     26370       1    2438    1957    6730    6805
CTETRA     26371       1    2438    2437    2144    6804
CTETRA     26372       1    2772    1956    2432    2437
CTETRA     26373       1    4195    4026       6     160
CTETRA     26374       1     160     240    4947    4948
CTETRA     26375       1     160     149    4948    4960
CTETRA     26376       1     160     159    2050    4947
CTETRA     26377       1       6     149     160    4960
CTETRA     26378       1     160    2050    4972    4959
CTETRA     26379       1    4970    2953    4969    4960
CTETRA     26380       1    3665    5578    4160    4162
CTETRA     26381       1    3932    2211     752    3367
CTETRA     26382       1    2542    5504    5429    5428
CTETRA     26383       1    2542     970    2104    5427
CTETRA     26384       1    3309    4172    3962    2116
CTETRA     26385       1    2880    4172    3491    3634
CTETRA     26386       1    3196     744    2998    2000
CTETRA     26387       1    2880    2871    6798    4278
CTETRA     26388       1    3623    3897    1153    2841
CTETRA     26389       1    2871    6723    6798    6799
CTETRA     26390       1    4273    2106    4274    2871
CTETRA     26391       1    3623    2143    2454    1945
CTETRA     26392       1    6648    3983    6724    2066
CTETRA     26393       1    4172    2066    3030    3983
CTETRA     26394       1    4276    2107    2880    4278
CTETRA     26395       1    3688    4097     416    3948
CTETRA     26396       1    3203    3206    4339    4352
CTETRA     26397       1    3429    3176    2921    3416
CTETRA     26398       1    5405    2921    5480    5404
CTETRA     26399       1    1008    4365    4364    2102
CTETRA     26400       1    1540    3308    3140    2163
CTETRA     26401       1     188    1522    1542    2021
CTETRA     26402       1    3302    5594    2108    5593
CTETRA     26403       1    1523    3302    2108    5593
CTETRA     26404       1    1523    3388    5593    5592
CTETRA     26405       1    3731    4644    5446    4557
CTETRA     26406       1    4391    4395    2198    3401
CTETRA     26407       1    3401    3048    4391    4386
CTETRA     26408       1    3401    3048    2198    4391
CTETRA     26409       1    3401    4371    3922    4392
CTETRA     26410       1    3401    3922    2478    4386
CTETRA     26411       1    3922    2478    3322    3401
CTETRA     26412       1    3338    3336    4086    3337
CTETRA     26413       1    2838    3338    4560    3339
CTETRA     26414       1    3338    3337    4555    4554
CTETRA     26415       1    3338    3339    4554    4560
CTETRA     26416       1    1592    4161    3996    1585
CTETRA     26417       1    3907    3623    1153    3794
CTETRA     26418       1    1176    5393    4676    5392
CTETRA     26419       1    1755    3090    3314    4161
CTETRA     26420       1    2637    1726    2596    6756
CTETRA     26421       1    1726    5255    2245    5259
CTETRA     26422       1    2596     680    6757    6756
CTETRA     26423       1     680    5254     637    5258
CTETRA     26424       1     680    6757    6758    6682
CTETRA     26425       1     356     354    3131    3223
CTETRA     26426       1    1967    3148     770    3880
CTETRA     26427       1    1245    3860    2722    1248
CTETRA     26428       1    4121    4215    3123    3010
CTETRA     26429       1    3382    5278    3010    5279
CTETRA     26430       1    3383    3713    3382    3777
CTETRA     26431       1    3479    3623    3794    1153
CTETRA     26432       1    4293    2838    4564    4559
CTETRA     26433       1    3479    3623    1153    1945
CTETRA     26434       1     644    4561    2838    4558
CTETRA     26435       1    3560     644    3338    3069
CTETRA     26436       1    3556    3802    6632    6633
CTETRA     26437       1    4204    2950    2291    2348
CTETRA     26438       1    3572    3062    2946    3065
CTETRA     26439       1    3556    6632    3802    6707
CTETRA     26440       1    3760    1205    6634    6633
CTETRA     26441       1    6709    3556    6633    1205
CTETRA     26442       1    3883      98    6663     100
CTETRA     26443       1    2786    2775    2444    3868
CTETRA     26444       1    2344    2345     100    3883
CTETRA     26445       1    2985    6838    3884    5219
CTETRA     26446       1    5494    3836    3323    3837
CTETRA     26447       1    1220    2208    2678    3299
CTETRA     26448       1    4104    3836    5569    4183
CTETRA     26449       1    3323    5492    2042    5567
CTETRA     26450       1    5567    3323    4104    2042
CTETRA     26451       1    2136    2135    1882    4190
CTETRA     26452       1    4144    4183    5719    3709
CTETRA     26453       1     979    3323    3837    5494
CTETRA     26454       1     534    2252    5606    5605
CTETRA     26455       1     534    5606    2252    5531
CTETRA     26456       1    2097    1366    3326     785
CTETRA     26457       1    5605     612    5529     534
CTETRA     26458       1    4174    2135    4190    1883
CTETRA     26459       1    3773     493     755     891
CTETRA     26460       1    4117    3810    4157    3522
CTETRA     26461       1    2097     532    1366     785
CTETRA     26462       1    5454    4715     532     535
CTETRA     26463       1     784     535     532    2843
CTETRA     26464       1    3033    2042    5566    2040
CTETRA     26465       1    3033    5565    3034    2040
CTETRA     26466       1    3033    5565    2040    5566
CTETRA     26467       1    2127    1800    4382    5415
CTETRA     26468       1    2127    3922    4370    4369
CTETRA     26469       1    4103    2093    2042    3323
CTETRA     26470       1    3033    5491    5416    5415
CTETRA     26471       1    2127    4382    1800    4369
CTETRA     26472       1    2810    4127    5602    5601
CTETRA     26473       1    2539    1884    1837    2667
CTETRA     26474       1     644    5525    2810    5450
CTETRA     26475       1    3073    5523    2148    2187
CTETRA     26476       1    3073     644    3069    4568
CTETRA     26477       1    2141    4157    4114    3622
CTETRA     26478       1    2832    3559    3561    2810
CTETRA     26479       1    2810     370    5600    5525
CTETRA     26480       1    3561    5600     370     371
CTETRA     26481       1    4292    2822    4710     535
CTETRA     26482       1    4016     539     538     541
CTETRA     26483       1    6612     538    6611      75
CTETRA     26484       1     540     538    6685     623
CTETRA     26485       1    2824    2361     539    2426
CTETRA     26486       1     538    6611      75     541
CTETRA     26487       1     538      75    6612    6687
CTETRA     26488       1    1828    6762     538    6761
CTETRA     26489       1    5068     623    6888    5067
CTETRA     26490       1    2381    2903    1828    2425
CTETRA     26491       1     539     538     623    2426
CTETRA     26492       1    3314    5543    3090    5468
CTETRA     26493       1    3996    3444    2421    4125
CTETRA     26494       1    1176    5467    5391    1585
CTETRA     26495       1    1755    1758    1757    1759
CTETRA     26496       1    3996    3314    1585    4161
CTETRA     26497       1    5467    5542    1585    3314
CTETRA     26498       1     540    6609    2928    6608
CTETRA     26499       1     541     631    2928    1502
CTETRA     26500       1    3733    1304     539     624
CTETRA     26501       1    1799    1379    3328    3327
CTETRA     26502       1    2907    1950    2690    2764
CTETRA     26503       1     540    6685     541    6610
CTETRA     26504       1     540     541    6609    6610
CTETRA     26505       1    3733    1179     637    2245
CTETRA     26506       1    2181    1372    3001    6626
CTETRA     26507       1    2029    3759    2091     353
CTETRA     26508       1    2181    3001    6625    6626
CTETRA     26509       1    2895    2181    6702    1372
CTETRA     26510       1    3142    2181    6625    6700
CTETRA     26511       1    2029     353     354    3759
CTETRA     26512       1    2698    2181     950     353
CTETRA     26513       1    1545    3772    3850    1711
CTETRA     26514       1    2710    3291    4513    3184
CTETRA     26515       1    2710    2424    4549    2216
CTETRA     26516       1    3969    4191    1084    2088
CTETRA     26517       1     935    6619     202    6620
CTETRA     26518       1    3638    6543     374    6544
CTETRA     26519       1    2338     938    1049     202
CTETRA     26520       1     195    1049    5086    5087
CTETRA     26521       1    2338    6770    5069    6771
CTETRA     26522       1    1929    3130     194    3131
CTETRA     26523       1    3028     352    6698    6773
CTETRA     26524       1    3028    3141    1923    6698
CTETRA     26525       1     858    3638    6393    6392
CTETRA     26526       1    2499    3935     705    1965
CTETRA     26527       1    6673    6598    1032    2153
CTETRA     26528       1    1848    2808    3590    4088
CTETRA     26529       1    1032    3009    6599    6600
CTETRA     26530       1    1032    3009    6600    6675
CTETRA     26531       1    6598    2153    6522    3358
CTETRA     26532       1    3257    4215    1032    3009
CTETRA     26533       1    3376    1032    3123    3100
CTETRA     26534       1     202     374    6693    6618
CTETRA     26535       1     202     374    6618    6619
CTETRA     26536       1     373    5048    5097    5098
CTETRA     26537       1    1929     195     126     193
CTETRA     26538       1    2338     202    6695     938
CTETRA     26539       1    1598    2398     304     303
CTETRA     26540       1    1598    5538     163     918
CTETRA     26541       1     898     873    5688    5613
CTETRA     26542       1    1598    5539     163    5538
CTETRA     26543       1    1598    5539    2398     163
CTETRA     26544       1    6934    1586    4725    5391
CTETRA     26545       1    3397     622     318     495
CTETRA     26546       1    2094    2305    2252    4001
CTETRA     26547       1     304    1586     306    2398
CTETRA     26548       1    6932    5615    1596    6931
CTETRA     26549       1    4195     160       6     149
CTETRA     26550       1    1707    2147     190    2605
CTETRA     26551       1    3147       6    4026     160
CTETRA     26552       1    1523    3302    5593    3388
CTETRA     26553       1    3302    3730    5670    5669
CTETRA     26554       1    5670    3302    3306    3730
CTETRA     26555       1    3302    2108    5594    5519
CTETRA     26556       1    1327    1978    1847    3226
CTETRA     26557       1    5669    3388    5593    3302
CTETRA     26558       1    1524    3730    3306    3302
CTETRA     26559       1    2188    2632    5277    5292
CTETRA     26560       1    5278    5292    2632    3010
CTETRA     26561       1    4074    1953    3621    4106
CTETRA     26562       1    4121    3010    3123    3403
CTETRA     26563       1    3010    3123    5293    5292
CTETRA     26564       1    3123    2188    5292    3010
CTETRA     26565       1    1397    1644    5277    2632
CTETRA     26566       1    2799    2440    4255    3239
CTETRA     26567       1    2890    3029    2871    2106
CTETRA     26568       1    4196    3239    2106    2997
CTETRA     26569       1    2799    3239    4255    4262
CTETRA     26570       1    4074    2805    3749    4037
CTETRA     26571       1    2106    2997    3239    4262
CTETRA     26572       1    3576    3980    4209    3574
CTETRA     26573       1      76    3993    6726    6727
CTETRA     26574       1    2941    2895    2302    3377
CTETRA     26575       1    2302    6629    3639    3377
CTETRA     26576       1    1156    1212    1143    2677
CTETRA     26577       1    2239    6780    6779    5016
CTETRA     26578       1    2239    5012    2291    4915
CTETRA     26579       1    1395    6060    1907    1906
CTETRA     26580       1    2941    2240    2895    2894
CTETRA     26581       1    6630    2302    6705    6629
CTETRA     26582       1    2952    2241    5008    2290
CTETRA     26583       1    2941    2952    2241    2894
CTETRA     26584       1    2290    2241    5008    5012
CTETRA     26585       1    5012    2241    2239    2290
CTETRA     26586       1    2239    2240    2302    2241
CTETRA     26587       1    5017    5014    2240    2241
CTETRA     26588       1    2241    2952    5008    5014
CTETRA     26589       1    3937    2289    3639    2302
CTETRA     26590       1    2239    4956    4914    4915
CTETRA     26591       1    1395    6135    2802    1396
CTETRA     26592       1    4956    2291    2239    6781
CTETRA     26593       1    3194    4519    2038    4518
CTETRA     26594       1    3194    2211    4519    4524
CTETRA     26595       1    4535    4524     752    3194
CTETRA     26596       1     970    3194    2038    4518
CTETRA     26597       1    3663    2211    2735    2001
CTETRA     26598       1    2542    4533    5428    4534
CTETRA     26599       1    5502    2104    5427    5503
CTETRA     26600       1    2104    3463    3665    4160
CTETRA     26601       1    3463    2104    2103    4160
CTETRA     26602       1     970    3194    4518    4522
CTETRA     26603       1    4141    2051    2003    5421
CTETRA     26604       1    3837    5421    4141    2003
CTETRA     26605       1    2051    3275    4141    3235
CTETRA     26606       1    2003    5421    4488    4481
CTETRA     26607       1    5569    5494    3836    3323
CTETRA     26608       1    3663    3932    2543    3665
CTETRA     26609       1    3521    2818     979    3014
CTETRA     26610       1    5496    3837    5421    4141
CTETRA     26611       1    2003    4482    3014    4484
CTETRA     26612       1    2153    4121    3776    3100
CTETRA     26613       1    4215    3123    2188    1032
CTETRA     26614       1    3271    3916    3384    2153
CTETRA     26615       1    4121    3006    3123    3100
CTETRA     26616       1    3112    3376    6674    1032
CTETRA     26617       1    3271    3052    3384    3916
CTETRA     26618       1    3384    3916    6595    6596
CTETRA     26619       1    3006    6747    5306    5305
CTETRA     26620       1    3006    6747    6746    5306
CTETRA     26621       1    4121    3384    3100    2153
CTETRA     26622       1    2970    2971    3052    3384
CTETRA     26623       1    2970    6745    3384    6670
CTETRA     26624       1    2970    3630    6668    3052
CTETRA     26625       1    2292    2971    3385    5297
CTETRA     26626       1    2292    6746    5304    5306
CTETRA     26627       1    2971    5288    3779    5287
CTETRA     26628       1    2971    5287    3385    5297
CTETRA     26629       1    3779    3385    3269    2971
CTETRA     26630       1    4118    3269    4199    3783
CTETRA     26631       1    3271    2292    2971    3385
CTETRA     26632       1    2292    3100    6746    3006
CTETRA     26633       1    1116    4647    2021    4646
CTETRA     26634       1    1116     188    4651    4646
CTETRA     26635       1    3562    2746    3933    2745
CTETRA     26636       1    4662    3074    4651    1116
CTETRA     26637       1    3050    3893    5515    5590
CTETRA     26638       1    2022    2021    1116    4647
CTETRA     26639       1    3352    1116    4663    4653
CTETRA     26640       1    3352    5443    4661    4663
CTETRA     26641       1    3849    3302    5519    2108
CTETRA     26642       1     631    2197     540    2928
CTETRA     26643       1    3274    2245    1726     597
CTETRA     26644       1     680    1726    5262    6756
CTETRA     26645       1    2197    2928    6607    6608
CTETRA     26646       1    2197    6608     540    2928
CTETRA     26647       1    3733     637    1179    1304
CTETRA     26648       1     624     637    6759     540
CTETRA     26649       1    6607    2913    6532    2928
CTETRA     26650       1    3979    3954    6652    3574
CTETRA     26651       1    1317    1652    1703    1320
CTETRA     26652       1    3791    2440    3239    2999
CTETRA     26653       1    6652    6577    3574    3954
CTETRA     26654       1    3954    3575    6576    6577
CTETRA     26655       1    3954    6576    3974    6651
CTETRA     26656       1    3663    3665    2746    3932
CTETRA     26657       1    6652    3954    3979    6727
CTETRA     26658       1    3979    4196      76    3993
CTETRA     26659       1    2734    3367    3932    3186
CTETRA     26660       1    2958    4254    2799    2440
CTETRA     26661       1    1457    4253    2958    4258
CTETRA     26662       1    4162    3665    4130    4049
CTETRA     26663       1    1457    2799    2958    4253
CTETRA     26664       1    2772    1957    6731    3658
CTETRA     26665       1    3979    6653    2438    3574
CTETRA     26666       1    3979    6653    3574    6652
CTETRA     26667       1    3980    2440    2958    2799
CTETRA     26668       1    2029    3142    2181    3001
CTETRA     26669       1    3142    2181    3001    6625
CTETRA     26670       1    6775    4901    5079    2698
CTETRA     26671       1    3028    1923    6696    6697
CTETRA     26672       1    3142    6625    3001    6624
CTETRA     26673       1    2698    5080     352     353
CTETRA     26674       1    2091    2270     353    3759
CTETRA     26675       1    2900    6549    6624    3001
CTETRA     26676       1     352    3130    5082    5084
CTETRA     26677       1    3445    4137    4125    3444
CTETRA     26678       1    6931    1596    6932    1592
CTETRA     26679       1    1586    2398    5465    4731
CTETRA     26680       1    5541    5542    1592    1585
CTETRA     26681       1    1868    4154    3564    3666
CTETRA     26682       1    5542    1585    3314    4161
CTETRA     26683       1    1586    4725    1584    4731
CTETRA     26684       1    2735    3367    3932    2734
CTETRA     26685       1    4387    2180    4305    2818
CTETRA     26686       1    2734    2626    2728    2745
CTETRA     26687       1    2818    1801    4367    4387
CTETRA     26688       1    2818    3014    2180    4478
CTETRA     26689       1    2818    3014    4478    4484
CTETRA     26690       1    2093    1800    4368    1801
CTETRA     26691       1    2093    4304     979    2818
CTETRA     26692       1    1800    2478    4369    4388
CTETRA     26693       1    2093    5416    4383    4382
CTETRA     26694       1    1800    3033    5416    5415
CTETRA     26695       1    1800    1801    2478    4388
CTETRA     26696       1    2093    1800    3033    5416
CTETRA     26697       1    3991    5471    3217    5472
CTETRA     26698       1    5547    5472    3215    3217
CTETRA     26699       1    3562    3879    2626    2745
CTETRA     26700       1    2171    5473    3991    3215
CTETRA     26701       1    3978    5395    5471    5396
CTETRA     26702       1    2171    5398    3991    5473
CTETRA     26703       1    2249    2150    3285    4434
CTETRA     26704       1    3285    4434    2150    4128
CTETRA     26705       1    3216    2150    3160    4128
CTETRA     26706       1    3159    6751    5290    5275
CTETRA     26707       1    1652    1464    1987    1705
CTETRA     26708       1    1397    5277    1644    5282
CTETRA     26709       1    5282    1397    5283    1644
CTETRA     26710       1    1397    2188    5277    5291
CTETRA     26711       1    1397    2188    2632    5277
CTETRA     26712       1    2617    1397    1644    5283
CTETRA     26713       1    3244     414    4347    3842
CTETRA     26714       1    2076    3244     414    4356
CTETRA     26715       1    3244    4348    3842    4347
CTETRA     26716       1    1057     107    5482    5481
CTETRA     26717       1    3880     217     933    2899
CTETRA     26718       1    2062     107    1057    3244
CTETRA     26719       1    2062    5408    4354    4361
CTETRA     26720       1    3412    3861    3842    4348
CTETRA     26721       1    4362    2102    4365     413
CTETRA     26722       1    2832    4085    2828    2822
CTETRA     26723       1     613    5604    5528    5603
CTETRA     26724       1    2811    5527     613    5452
CTETRA     26725       1    5529     535     534     612
CTETRA     26726       1     535    2811    4292    2822
CTETRA     26727       1    2822    4700    4696     786
CTETRA     26728       1     613    4127    5603    5602
CTETRA     26729       1    4294    4700    4696    2822
CTETRA     26730       1    2822    4294    2828    4293
CTETRA     26731       1    4085    2822     786    2828
CTETRA     26732       1    1073    1455    1969    1023
CTETRA     26733       1    4212     613    2832    4127
CTETRA     26734       1    2832     613    2810    4127
CTETRA     26735       1     613    5453    5529     535
CTETRA     26736       1     774    1698     777     776
CTETRA     26737       1    4250    2958    4254    4257
CTETRA     26738       1    6720    6645    2998    2000
CTETRA     26739       1    2107    4276    3083    4271
CTETRA     26740       1    3634    6721    6645    2998
CTETRA     26741       1    6646    3634    6721    6645
CTETRA     26742       1    2998    2000    6795    6720
CTETRA     26743       1    3083    2960    6853    6854
CTETRA     26744       1    6853    3083    2959    2960
CTETRA     26745       1    3491    4194    2880    2107
CTETRA     26746       1    2998    4276    6796    4272
CTETRA     26747       1    2107    3083    2959    4271
CTETRA     26748       1    3491    2998    2880    3634
CTETRA     26749       1    2880    4276    6796    2998
CTETRA     26750       1     744    6854    3083    4272
CTETRA     26751       1     744    2219    1560    6854
CTETRA     26752       1    2921    5554    5478    3416
CTETRA     26753       1     415    3625    2921     413
CTETRA     26754       1    5553    3416    5478    5554
CTETRA     26755       1    3416    3176    2921    5554
CTETRA     26756       1     133     134    6641    4005
CTETRA     26757       1     132    4005     134     133
CTETRA     26758       1     133    6643    2000    3201
CTETRA     26759       1     133    6643    3201    6642
CTETRA     26760       1     134     133    6717    6792
CTETRA     26761       1    6792    6793    4945     135
CTETRA     26762       1     158     132    4005     658
CTETRA     26763       1     135    6793    4945    6856
CTETRA     26764       1    3196     135    2219     744
CTETRA     26765       1    3667    2219    1561    1560
CTETRA     26766       1    2846    1139    2845     374
CTETRA     26767       1    2816    2612    3960    3757
CTETRA     26768       1    4062    2088    1038    6245
CTETRA     26769       1    2272    1139     374    1162
CTETRA     26770       1     196     901     921     193
CTETRA     26771       1    3969    3645    6395    2088
CTETRA     26772       1    3426    6396     216    3969
CTETRA     26773       1    2882    2826    4102    3478
CTETRA     26774       1    2397     373    5048      49
CTETRA     26775       1    1079     700     699    1033
CTETRA     26776       1    2730     177    3289     817
CTETRA     26777       1    4136     740    3167    2695
CTETRA     26778       1    3645    3914     857    2088
CTETRA     26779       1    1161    1139    2272    1162
CTETRA     26780       1    4043    3427    3409    5915
CTETRA     26781       1     296     299     855    2077
CTETRA     26782       1    2398     910     303    1598
CTETRA     26783       1    3427    3460    5915    4043
CTETRA     26784       1    3773     755     297     508
CTETRA     26785       1    2095     493     485     755
CTETRA     26786       1    4213     812    3284    3900
CTETRA     26787       1     811    2363     812     378
CTETRA     26788       1    4213    3284    2235    3900
CTETRA     26789       1    6465     722     711     723
CTETRA     26790       1     356     352     354    3142
CTETRA     26791       1    3141    3142    3001    6624
CTETRA     26792       1    2552    3021    3739    3990
CTETRA     26793       1    2371    2448    2372    3739
CTETRA     26794       1    2550    3747    4079    3746
CTETRA     26795       1    1948    3059    2244    2455
CTETRA     26796       1    2833    2861    2836    4056
CTETRA     26797       1    6268    3059    2374    6267
CTETRA     26798       1    1283    6267    6343    2374
CTETRA     26799       1    4001    2075    2252     612
CTETRA     26800       1    5681    2303    2075    2252
CTETRA     26801       1    2096    2142     785    3326
CTETRA     26802       1    4001     784     612     534
CTETRA     26803       1    3750    2142     891    2141
CTETRA     26804       1     784     532     785    2843
CTETRA     26805       1    3750    2141     891    3143
CTETRA     26806       1    3224    4045    6181    6180
CTETRA     26807       1    3224    1484    6105    4087
CTETRA     26808       1    1470    1986    1483    3224
CTETRA     26809       1    1704    6030    4087    3940
CTETRA     26810       1    1433    1454    6179    6178
CTETRA     26811       1    1704    3940    6029    6030
CTETRA     26812       1    2364    6030    3940    4087
CTETRA     26813       1    5955    2364    6030    3940
CTETRA     26814       1    4100    5952    2689    5951
CTETRA     26815       1    4099    2689    6025    6026
CTETRA     26816       1    1484    6179    1454    6180
CTETRA     26817       1    4087    2364    6030    6031
CTETRA     26818       1    2869    2870    3585    2469
CTETRA     26819       1    1625    3329    2203    4071
CTETRA     26820       1    3833    3655    4044    2897
CTETRA     26821       1    3417    3013    4021    6217
CTETRA     26822       1    3793    2611    2005    2619
CTETRA     26823       1     800    2571    6082    6081
CTETRA     26824       1    6076    2655    6075    2199
CTETRA     26825       1    3211    3717    3594    1606
CTETRA     26826       1    3804    2323    1368    1367
CTETRA     26827       1    3675    3161    3276    3852
CTETRA     26828       1    2237    2150    3276    3160
CTETRA     26829       1    2238    3288    4329    4344
CTETRA     26830       1    2171    5474    2262    5399
CTETRA     26831       1    3288    2262    2238    2236
CTETRA     26832       1    3251    3249    3324    3242
CTETRA     26833       1    4004    3237    3949    3236
CTETRA     26834       1    3436    2237    3675    3160
CTETRA     26835       1    2844    2884    3528    3437
CTETRA     26836       1    1655    2227    2611    2939
CTETRA     26837       1    4007    1301     713    3967
CTETRA     26838       1    1900    1099    1095    1901
CTETRA     26839       1     971    3393    6604    1475
CTETRA     26840       1    1300    1301    3967    1302
CTETRA     26841       1    2507    2508    2520    2567
CTETRA     26842       1    1703    1479    1375    1480
CTETRA     26843       1    3041     249     419    3026
CTETRA     26844       1     283    7040    2121    7039
CTETRA     26845       1     131    2120    2382    7031
CTETRA     26846       1     129    7036    7035    2312
CTETRA     26847       1     129    2312    7037    7036
CTETRA     26848       1    2536    7033    2120     128
CTETRA     26849       1    3507    3590    2070    2989
CTETRA     26850       1    2544    3542    2545    3437
CTETRA     26851       1     129    2121    2119    2446
CTETRA     26852       1     129    7037    2312    7038
CTETRA     26853       1      57    2191    5741    5666
CTETRA     26854       1    2695    2696    1885    3167
CTETRA     26855       1     529     335    3615    2376
CTETRA     26856       1    2904    2813    3305    4591
CTETRA     26857       1    3623    2841    1945    2454
CTETRA     26858       1    2842    2455    1945    2454
CTETRA     26859       1    2842    2454    6115    6190
CTETRA     26860       1    1153    2841    1932    1945
CTETRA     26861       1    1960    1385    2328    1962
CTETRA     26862       1    1487    6451    6375    3952
CTETRA     26863       1    3952    2224    6375    1487
CTETRA     26864       1    2005    2587    2588    6145
CTETRA     26865       1    3419    1656    3856    1685
CTETRA     26866       1    2939    2574    2610    6298
CTETRA     26867       1    2227    2939    1200    2610
CTETRA     26868       1    1661    3952    6374    6449
CTETRA     26869       1    3295    2574    6148    2610
CTETRA     26870       1    2574    6223    2610    6298
CTETRA     26871       1    2615    1490    1745    1491
CTETRA     26872       1    2687    2615    4834    4833
CTETRA     26873       1    3944    3581    3764    2781
CTETRA     26874       1    2687    4809    1745    4821
CTETRA     26875       1    4810    4809     342    2687
CTETRA     26876       1    1745    4833    4820    4832
CTETRA     26877       1    2687    4833    1745    2615
CTETRA     26878       1    2541    2687    1491    6938
CTETRA     26879       1    4345    2062    4354    3412
CTETRA     26880       1    3412    2063    4345    2062
CTETRA     26881       1    2062    5407    1057    5482
CTETRA     26882       1    3361    3318    3360    3315
CTETRA     26883       1    3412    4332    4345    2063
CTETRA     26884       1    4349    3412    4332    4345
CTETRA     26885       1    2063    3904    4332    4331
CTETRA     26886       1    3363    3826    3370    3359
CTETRA     26887       1    2063    6972    5410    6973
CTETRA     26888       1    2063    5410    4331    6973
CTETRA     26889       1    2063    4331    3789    3904
CTETRA     26890       1    5607    2252    5531    2253
CTETRA     26891       1    2253    5607    2252    5682
CTETRA     26892       1    5535    1331    1344    5610
CTETRA     26893       1    2095     493    3326    2149
CTETRA     26894       1    2096    3773     891     493
CTETRA     26895       1    2253    2252    5531    2251
CTETRA     26896       1    3324    2170    2169    3325
CTETRA     26897       1    1600    2310    1602    2311
CTETRA     26898       1    2075    2303    5757    2304
CTETRA     26899       1    2339    2253    2305    2303
CTETRA     26900       1    1909    2802    1906    2803
CTETRA     26901       1    1632    6216    3417    1788
CTETRA     26902       1    3013    4039    6217    3417
CTETRA     26903       1    6292    3717    6291    1632
CTETRA     26904       1    6293    3005    4039    3013
CTETRA     26905       1     228    3727     460    3725
CTETRA     26906       1    1943    3487    4122    3615
CTETRA     26907       1    4211    1029    3171    1577
CTETRA     26908       1     186    3074    1116     188
CTETRA     26909       1    3893     186     187     185
CTETRA     26910       1    1905    1907    2902    2891
CTETRA     26911       1    3851    1705    1987    1986
CTETRA     26912       1     455    1547    5510    5511
CTETRA     26913       1    1546    1576    5510    3113
CTETRA     26914       1    1547    2056    1554    1546
CTETRA     26915       1    2737    3718    2725    1576
CTETRA     26916       1    5434    3109    4510    5435
CTETRA     26917       1    1554    2056    2196    1546
CTETRA     26918       1    5584    5509    3930    3718
CTETRA     26919       1    3474    2309    3469    2096
CTETRA     26920       1    3113    1576    5510    3109
CTETRA     26921       1    1570    2196    2215    3292
CTETRA     26922       1    2720    2710    3292    2215
CTETRA     26923       1    1555    3079    1567    3207
CTETRA     26924       1    4065     681    2919    2888
CTETRA     26925       1    3369    3715    3716    3861
CTETRA     26926       1    4171    3227    2198    2930
CTETRA     26927       1    4107    2173    4109    3737
CTETRA     26928       1    2018    3904    3861    3412
CTETRA     26929       1    3939    3715    2504    2201
CTETRA     26930       1    3826    3904    3715    3861
CTETRA     26931       1    3738    3737    3845    2173
CTETRA     26932       1    3157    3431    3898    3286
CTETRA     26933       1    2020    5818    3387    3342
CTETRA     26934       1    3388    2020    5743    5742
CTETRA     26935       1    1627    1413    1808    3199
CTETRA     26936       1    2020    5818    3342    5819
CTETRA     26937       1    2020    3342    5744    5819
CTETRA     26938       1    1524    3388    3780    3730
CTETRA     26939       1    3780    5745    2020    3342
CTETRA     26940       1    2020    5745    3730    5744
CTETRA     26941       1    5669    5744    3388    3730
CTETRA     26942       1    2414    3906    2416    1914
CTETRA     26943       1    4606    3140    2964    3138
CTETRA     26944       1     372    4120    3972    3335
CTETRA     26945       1    2200    5775    3243    1804
CTETRA     26946       1     544    1656    1653    1668
CTETRA     26947       1    1655    1201    1668    2227
CTETRA     26948       1    1912    1660    2341    1914
CTETRA     26949       1    3712    3383    3382    3010
CTETRA     26950       1    1655    6372    1661    2939
CTETRA     26951       1    3801    3394    2636    3395
CTETRA     26952       1    2173    4109    3629    2045
CTETRA     26953       1    3370    2888    4065    2919
CTETRA     26954       1    3081    2098    3321    3286
CTETRA     26955       1    3340    2065    3218    4034
CTETRA     26956       1    3555    2049    5974    3999
CTETRA     26957       1    2049    3999    5975    5974
CTETRA     26958       1    5975    2049    1747    3999
CTETRA     26959       1    2049    3543    5899    5824
CTETRA     26960       1    3555    2049    3351    3350
CTETRA     26961       1    4004    3236    3949    2123
CTETRA     26962       1    1912    1907    1905    1407
CTETRA     26963       1    1134    3424    1928    2884
CTETRA     26964       1    5520    3302    5595    5519
CTETRA     26965       1    3344    5522    2148    5446
CTETRA     26966       1    5595    5670    3302    3306
CTETRA     26967       1    3306    5670    3730    5671
CTETRA     26968       1    1794    1164    2047    2046
CTETRA     26969       1    1783    1900    1899    3514
CTETRA     26970       1     106    3843    2934    4064
CTETRA     26971       1    4168     413    1163    3891
CTETRA     26972       1    3404    5476    2184    3407
CTETRA     26973       1    4097    1164    3287    2047
CTETRA     26974       1    3201    3200    3196    3197
CTETRA     26975       1    4017    3962    2367    3136
CTETRA     26976       1    2513    2552    3231    2512
CTETRA     26977       1    2489     659    3786    2160
CTETRA     26978       1    2054    2487    1699    3379
CTETRA     26979       1    1939    2336    2374    1941
CTETRA     26980       1    3491    4194    2107    2959
CTETRA     26981       1    2490    6567    3201    6568
CTETRA     26982       1    3770    3053    2370    3619
CTETRA     26983       1    1544    4159    5587     912
CTETRA     26984       1    3781    1517    2644    4159
CTETRA     26985       1    5587    1553     455    5512
CTETRA     26986       1    1570    2720    3292    2215
CTETRA     26987       1    1361    2112    1842    3293
CTETRA     26988       1    3781    1529    1509    2177
CTETRA     26989       1    3387      57    5742    2020
CTETRA     26990       1    2177    1529    1530      57
CTETRA     26991       1    2797    2344    2347    3612
CTETRA     26992       1    2985    6815    3884    6838
CTETRA     26993       1    3811    3865    6918    6591
CTETRA     26994       1    3613     100    6740    6665
CTETRA     26995       1    2344    2345    2347    3612
CTETRA     26996       1    2345    3884    2985    6815
CTETRA     26997       1    3691    3811    3630    6667
CTETRA     26998       1    3811    6916    2985    5268
CTETRA     26999       1    2985    5219    3884    3268
CTETRA     27000       1    3690    3692    6668    3630
CTETRA     27001       1    1696    2549    1691    1749
CTETRA     27002       1    3431    3227    2201    3365
CTETRA     27003       1    3369    3157    3320    3431
CTETRA     27004       1    2974    4065    4064    4109
CTETRA     27005       1    3360    5637    4091    5638
CTETRA     27006       1    3816    2851    3818    2852
CTETRA     27007       1    1800    2039    3034    3322
CTETRA     27008       1    3826    3789    2503    3904
CTETRA     27009       1    5559    3825    5635    2919
CTETRA     27010       1    3885    2620    4111    4112
CTETRA     27011       1    3964    2658    3803    3189
CTETRA     27012       1    1892    3347    3277    3221
CTETRA     27013       1    3260    1028    3222    4153
CTETRA     27014       1    2424    3848    2216    3146
CTETRA     27015       1    3221    5726    5802    2357
CTETRA     27016       1    3221    3347    3277    5726
CTETRA     27017       1    4058    5877    3221    4192
CTETRA     27018       1    5801    5876    3277    3221
CTETRA     27019       1    1939    3059    1948    1940
CTETRA     27020       1    1583    3343    5821    2030
CTETRA     27021       1    2819    4189    6034    6035
CTETRA     27022       1    2482    2968    2007    2027
CTETRA     27023       1    4061    2861    6123    6122
CTETRA     27024       1    2966    2466    2428    3070
CTETRA     27025       1    3907    5892     791    3387
CTETRA     27026       1     791    3794    2246    5968
CTETRA     27027       1    6122    6197    6121    2827
CTETRA     27028       1    1980    2442    2757    1419
CTETRA     27029       1    1957    6655    2438    6730
CTETRA     27030       1    6731    3658    6732    2772
CTETRA     27031       1    1915    1780    1918    1421
CTETRA     27032       1    6655    3671    6656    1957
CTETRA     27033       1    1956    2432    3077    3229
CTETRA     27034       1    1956    4000    1957    1959
CTETRA     27035       1    4209    2437    2438    2958
CTETRA     27036       1    4000    2437    2958    3685
CTETRA     27037       1    3630    2129    2130    5285
CTETRA     27038       1    3270    2129    2131    2130
CTETRA     27039       1    2970    5295    6743    3630
CTETRA     27040       1    2970    2130    3630    3052
CTETRA     27041       1    3692    3052    6593    6668
CTETRA     27042       1    1426    2352    2534    1429
CTETRA     27043       1    3691    3690    6592    3630
CTETRA     27044       1    3613    3811    6917    2985
CTETRA     27045       1    3865    3594    1604    1606
CTETRA     27046       1    1619    1626    1604    3873
CTETRA     27047       1    1654    1661    6523    3358
CTETRA     27048       1    2418     418     231    3174
CTETRA     27049       1    3695     156    1307      37
CTETRA     27050       1    2418    3600    2942    3174
CTETRA     27051       1    3226    4000    3589    4037
CTETRA     27052       1    3331    4035    6434    6435
CTETRA     27053       1    3601    2265    3584    3924
CTETRA     27054       1    3253     170    2190    2942
CTETRA     27055       1    3775    3253    2190    3254
CTETRA     27056       1     215    2418     417     418
CTETRA     27057       1    3041     215    2419    3253
CTETRA     27058       1    3041    3774    2943    3253
CTETRA     27059       1    2609    3771    3754    3619
CTETRA     27060       1    3208    2121    2470    2446
CTETRA     27061       1    3496    4035    4015    2804
CTETRA     27062       1    2757    2773    4028    4010
CTETRA     27063       1    2773    3135    4047    4010
CTETRA     27064       1    1253    1619    1642    1620
CTETRA     27065       1    3982    2812    4048    2893
CTETRA     27066       1    1229     496     495    3397
CTETRA     27067       1    1941     645    2374    1283
CTETRA     27068       1    3667    3668    1562    3022
CTETRA     27069       1    2374    2372    2449    3225
CTETRA     27070       1    2491    6569    3200    6570
CTETRA     27071       1    2375    4087    6031    2364
CTETRA     27072       1    2836    3739    2071    2839
CTETRA     27073       1    2926    5991    2927    6926
CTETRA     27074       1    2751    3417    3976    1788
CTETRA     27075       1    2926    2893    5991    6066
CTETRA     27076       1    1768    1788    2926    6925
CTETRA     27077       1    3981    6067    3683    2893
CTETRA     27078       1    1778    1633    6922    6365
CTETRA     27079       1    3769    6204    3765    6205
CTETRA     27080       1     902    4177    3651     921
CTETRA     27081       1    2043     941     967     940
CTETRA     27082       1    2688    1002    3679    5949
CTETRA     27083       1    3278    3185    3755    3711
CTETRA     27084       1     968     969    6476     933
CTETRA     27085       1     968     969    6477    6476
CTETRA     27086       1    3114    6478    3145    6403
CTETRA     27087       1    3114    3117    3145    3122
CTETRA     27088       1    1131    1000    2502     994
CTETRA     27089       1    2359    3711    3000     945
CTETRA     27090       1     656    2486    3164    4005
CTETRA     27091       1     770     932     217     772
CTETRA     27092       1    6627    1372    6552    3377
CTETRA     27093       1    2089    3567    3566     906
CTETRA     27094       1    3880    3115    1969    1453
CTETRA     27095       1    2089    3118    1372    3377
CTETRA     27096       1    3880     932    3881     933
CTETRA     27097       1    3567    3937    3377    2941
CTETRA     27098       1    2513    2514    4056    3256
CTETRA     27099       1    3774    3054    2943    3495
CTETRA     27100       1    2027    2080    2968    2033
CTETRA     27101       1    2396     473     474    2156
CTETRA     27102       1    3342    1583    3139    3787
CTETRA     27103       1     191    3648    2640    2605
CTETRA     27104       1    2229    2609    3771    3067
CTETRA     27105       1    2891    4098    6058    5983
CTETRA     27106       1    1906    2802    6133    3984
CTETRA     27107       1    6133    2802    6209    2801
CTETRA     27108       1    2803    1918    3984    1906
CTETRA     27109       1    3984    6132    2801    6133
CTETRA     27110       1    3986    3984    4098    6057
CTETRA     27111       1    2395    2457    2684    1686
CTETRA     27112       1    3122    1021    3117    3145
CTETRA     27113       1    6028    3940    1431    4058
CTETRA     27114       1    4058    3940    5953    6028
CTETRA     27115       1    2769    3455    3518    3635
CTETRA     27116       1    4025    2086    2087    2085
CTETRA     27117       1    4202    2087    2443    2085
CTETRA     27118       1     953    1747    3554    5902
CTETRA     27119       1    2087     953    5902    5827
CTETRA     27120       1    2087    3942    5904    5903
CTETRA     27121       1    5827    2086    5828    2087
CTETRA     27122       1    2087    2085    5829    2443
CTETRA     27123       1    3986    5980    3946    6055
CTETRA     27124       1    4098    6057    5981    3986
CTETRA     27125       1    3944    3987    3986    3946
CTETRA     27126       1    4025    3747    4202    2087
CTETRA     27127       1    3767    3765    6206    6205
CTETRA     27128       1    6130    6205    3769    3767
CTETRA     27129       1    3987    6054    3769    6055
CTETRA     27130       1    6131    3767    6056    6132
CTETRA     27131       1     784    3568    4212     783
CTETRA     27132       1    2832     784    2822     613
CTETRA     27133       1    4114    2828    3559    4085
CTETRA     27134       1     783    4085    2141    4157
CTETRA     27135       1    3559    2838     644    2832
CTETRA     27136       1    4212    2832     784    4085
CTETRA     27137       1    2843    2822     786     784
CTETRA     27138       1    2608    1428    2229    3068
CTETRA     27139       1    4202    2443    3943    3266
CTETRA     27140       1    1611    1120    2654    3465
CTETRA     27141       1    3761    4085    3559    3561
CTETRA     27142       1    3620    3618    3925    2086
CTETRA     27143       1    3561    2810     370    5600
CTETRA     27144       1    3561    2810    5600    5601
CTETRA     27145       1    3561    2810    5601    4127
CTETRA     27146       1    2832    3559    2828    4085
CTETRA     27147       1    2832    2828    3559    2838
CTETRA     27148       1    3820    3821    5939    2604
CTETRA     27149       1    3820    5788    3863    5863
CTETRA     27150       1    3863    5863    2604    3820
CTETRA     27151       1    5862    3863    5863    2604
CTETRA     27152       1    3862    3863    5788    4091
CTETRA     27153       1    3179    3631     846    2138
CTETRA     27154       1    2063    2018    3789    5485
CTETRA     27155       1    3034    5415    2127    5414
CTETRA     27156       1    5564    5639    5563    3316
CTETRA     27157       1    2127    5414    4379    3317
CTETRA     27158       1    4381    2127    5414    4379
CTETRA     27159       1    3317    3315    3322    3034
CTETRA     27160       1    3317    2484    4377    4379
CTETRA     27161       1    4377    3317    5412    2484
CTETRA     27162       1    3588    2609    2308    2369
CTETRA     27163       1    3316    3034    5489    5564
CTETRA     27164       1    3322    2484    3922    2504
CTETRA     27165       1    3317    2484    5487    5412
CTETRA     27166       1    3317    3318    2484    3315
CTETRA     27167       1    3571    3572    3062    6712
CTETRA     27168       1    2609    3684    2308    3950
CTETRA     27169       1    2600    2597    1467    2716
CTETRA     27170       1    4204    1031    3556    1205
CTETRA     27171       1     330    2598     331    2337
CTETRA     27172       1    3572    2946    3150    3065
CTETRA     27173       1    2725    3930    1576    3718
CTETRA     27174       1    3129    2966    3128    3246
CTETRA     27175       1    3570    2905    2993    3897
CTETRA     27176       1    3888    5728    5804    3887
CTETRA     27177       1    1854    2357    1892    3221
CTETRA     27178       1    3277    4175    5725    3347
CTETRA     27179       1    3347    1892    3277    4175
CTETRA     27180       1    1892    2357    4154    3347
CTETRA     27181       1    1868    2357    1854    4049
CTETRA     27182       1    3263    3088    2203    3262
CTETRA     27183       1    3738    3737    3551    3845
CTETRA     27184       1    3823    6006    2123    6005
CTETRA     27185       1     739     723    6392    6391
CTETRA     27186       1    1812     765    4019     719
CTETRA     27187       1    3505    3535     860    4197
CTETRA     27188       1     814    3551    1670    3845
CTETRA     27189       1    3683     887     889    2794
CTETRA     27190       1     703    3804    3125     155
CTETRA     27191       1    3031    2362    4213     811
CTETRA     27192       1    2078    2796    2593    2082
CTETRA     27193       1    2330    3523    4178    2137
CTETRA     27194       1    2963    3649    2428    3058
CTETRA     27195       1    2753    4094    2037    3830
CTETRA     27196       1    2969    2968    2007    2482
CTETRA     27197       1    2428    4604    2084    3058
CTETRA     27198       1    3311    2652    2651    3885
CTETRA     27199       1    3260    3132    3847    4153
CTETRA     27200       1    3847    3132    3864    4153
CTETRA     27201       1    2725    1576    2634    2721
CTETRA     27202       1    2966    3070    2428    3649
CTETRA     27203       1    2968    2966    2963    3649
CTETRA     27204       1     572    2790     513     574
CTETRA     27205       1    2609    3053    3619    2369
CTETRA     27206       1    2118    1894    3411    2908
CTETRA     27207       1    4060    2113    2904    2035
CTETRA     27208       1    3264    2904     472    3298
CTETRA     27209       1    2938    2659    3847    1716
CTETRA     27210       1    2938    3847    3260    3132
CTETRA     27211       1    2395     474    3304    2684
CTETRA     27212       1    3701    2819    6109    6110
CTETRA     27213       1    2375    3224    6106    4087
CTETRA     27214       1    1194    3964    1723    3246
CTETRA     27215       1    3120    2293    3516    2599
CTETRA     27216       1    2609    3771    3619    3770
CTETRA     27217       1    1153    2192    3855    3853
CTETRA     27218       1    2091     950     353    2270
CTETRA     27219       1    4019     765    6163    6238
CTETRA     27220       1    4018    3173    6161    2733
CTETRA     27221       1     574    3957    2889    3678
CTETRA     27222       1    4019    6238     719     765
CTETRA     27223       1    1680    2492    2525    4004
CTETRA     27224       1    6237     719    3173    4019
CTETRA     27225       1    4018    4019    6163    6162
CTETRA     27226       1    6161    2138    6086    4018
CTETRA     27227       1    1247    1245    2162    3681
CTETRA     27228       1    2442    2757    3496    3579
CTETRA     27229       1    3793    1655    3953    1687
CTETRA     27230       1    3210    3597    2401    2300
CTETRA     27231       1    3833    3804    4044    3655
CTETRA     27232       1    1900    3514    1901    1495
CTETRA     27233       1    1550    3035    3037    2925
CTETRA     27234       1    2329    3597    3596    3210
CTETRA     27235       1    3591    1713    3038    2636
CTETRA     27236       1    3153    2293    6072    5997
CTETRA     27237       1    1307    3833    3804    4044
CTETRA     27238       1     696     828     698    1167
CTETRA     27239       1     856     857    6243    6318
CTETRA     27240       1    6243     856    6242    3442
CTETRA     27241       1    3645    3638    6394    6393
CTETRA     27242       1    3638     935    6469    6544
CTETRA     27243       1    6319     857    6320    3645
CTETRA     27244       1     857    6320    3645    2088
CTETRA     27245       1    1033    3453     857    6243
CTETRA     27246       1    1827    1893    1852    1853
CTETRA     27247       1    2865    5946    4169    6021
CTETRA     27248       1    6245    2088    6320     857
CTETRA     27249       1    4062     857    2088    6245
CTETRA     27250       1    2330    3796    2222    3483
CTETRA     27251       1    4063    2036    2505    2048
CTETRA     27252       1    1009    2435    4072    4170
CTETRA     27253       1    2332    3042    3483    3043
CTETRA     27254       1    4111    4130    3879    3563
CTETRA     27255       1    2484    3315    3322    3317
CTETRA     27256       1    3670    5931    1670    5856
CTETRA     27257       1    5931    2123    5930    3670
CTETRA     27258       1    5930    3670    5855    5931
CTETRA     27259       1    3670    1670    3551    3845
CTETRA     27260       1    3822    3236    3670    3551
CTETRA     27261       1    1555    3080    3152    1840
CTETRA     27262       1    3241    5778    4176    5853
CTETRA     27263       1    3670    3845    3551    3844
CTETRA     27264       1    3325    3670    3551    3844
CTETRA     27265       1    2428    3877    4573    2465
CTETRA     27266       1    3607    3772    3301    2644
CTETRA     27267       1    3877    2428    3246    2465
CTETRA     27268       1    2984    1583    3653    4110
CTETRA     27269       1    2395    3128    3965    3303
CTETRA     27270       1    3953    6295    2619    6370
CTETRA     27271       1    3953    1684    6370    3005
CTETRA     27272       1    3953    2619    6295    6296
CTETRA     27273       1    2611    6371    6296    3953
CTETRA     27274       1    3953    1655    2611    6371
CTETRA     27275       1    1687    3953    3005    1684
CTETRA     27276       1    1684    6370    6446    3953
CTETRA     27277       1    6445    1684    6370    6446
CTETRA     27278       1    2293    3296    5997    3153
CTETRA     27279       1    2611    2610    6222    6297
CTETRA     27280       1    2611    2939    6297    6372
CTETRA     27281       1    4007    3257    3394    4215
CTETRA     27282       1    2827    3528    2847    2826
CTETRA     27283       1    3554     953    3529    1747
CTETRA     27284       1    3259     745    2403     403
CTETRA     27285       1    5996    2739    5997    2293
CTETRA     27286       1    4079    3999    6051    5976
CTETRA     27287       1    2458    3008    2480    2568
CTETRA     27288       1    3349    3518    3421    3543
CTETRA     27289       1    4117    3699    2501    2482
CTETRA     27290       1    2961    2967    4131    4188
CTETRA     27291       1    2651    4112    4173    3885
CTETRA     27292       1    2196    3586    2056    1554
CTETRA     27293       1    1711    2644    1559    1545
CTETRA     27294       1    3848    1715    3188    2109
CTETRA     27295       1    2961    3795    2964    3058
CTETRA     27296       1    3893    2025    5515    3368
CTETRA     27297       1    3333    2167    3563    3311
CTETRA     27298       1    1717    1715    3847    2218
CTETRA     27299       1    1714    1860    1716    1752
CTETRA     27300       1    2009    2210    3972    3337
CTETRA     27301       1    4117    2010    2726    2482
CTETRA     27302       1    3892    4110    3343    3730
CTETRA     27303       1    2325    2010    2009    3810
CTETRA     27304       1    3408    3409    3936    3805
CTETRA     27305       1    2832    2822    2828    2811
CTETRA     27306       1    3421    3518    3968    3543
CTETRA     27307       1    3112    6674    3376    6749
CTETRA     27308       1    3376    6674    1032    6673
CTETRA     27309       1    6673    3100    2153    1032
CTETRA     27310       1    3376    3100    6672    6673
CTETRA     27311       1    3112    3123    1032    2188
CTETRA     27312       1    6598    1032    2153    3358
CTETRA     27313       1    3376    1032    3100    6673
CTETRA     27314       1    3376    6672    3100    6747
CTETRA     27315       1    3376    3006    6747    3100
CTETRA     27316       1     628     973    3591    1787
CTETRA     27317       1    4006    1301    4208    3091
CTETRA     27318       1    3009    3257    3159    6675
CTETRA     27319       1    3801    3799    3394     712
CTETRA     27320       1    6526    3395    3009     712
CTETRA     27321       1    3395    3393    6602    6677
CTETRA     27322       1    3667    3082    1560    3492
CTETRA     27323       1    2490    2491     645    6493
CTETRA     27324       1    3734    3022     240     242
CTETRA     27325       1    2987    3084    3710    3154
CTETRA     27326       1    3196    3022    3667    2219
CTETRA     27327       1    3196    2998    3082    3491
CTETRA     27328       1    3022     240     242    4942
CTETRA     27329       1    1922    1926    1657     356
CTETRA     27330       1    2090     772     969     932
CTETRA     27331       1    2029     947    3759     354
CTETRA     27332       1     935    6544     374    6619
CTETRA     27333       1    1923     938    6696    6621
CTETRA     27334       1    3766     902     967    2043
CTETRA     27335       1    2060    2164     941     901
CTETRA     27336       1    3223     357    3131     356
CTETRA     27337       1     373    6691     742    1140
CTETRA     27338       1    2397    6766     373    6691
CTETRA     27339       1     742     373     374    6692
CTETRA     27340       1    1139    1162     742     374
CTETRA     27341       1     127    1139     373    2855
CTETRA     27342       1    3296    5998    3153    3004
CTETRA     27343       1     127     125      49    1140
CTETRA     27344       1     377    1140    2397      49
CTETRA     27345       1    3470    3472    3512    3471
CTETRA     27346       1     296    2699     855    3871
CTETRA     27347       1     843    1227    2650    1831
CTETRA     27348       1    3389     303    3397     622
CTETRA     27349       1    1229    3397    2267    3871
CTETRA     27350       1     303    2398     304     306
CTETRA     27351       1    2653     880    2266    1992
CTETRA     27352       1     898    5613    1598     918
CTETRA     27353       1    1778    1788    1632    1630
CTETRA     27354       1    1623    2015    2874    2016
CTETRA     27355       1    3871     496    3397    3177
CTETRA     27356       1    2402     401     508     299
CTETRA     27357       1    4202    3266    3267    2443
CTETRA     27358       1    2681    2477    2700    2711
CTETRA     27359       1    3182    2604    3191    3192
CTETRA     27360       1    3296    5998    3004    2879
CTETRA     27361       1    4073    2166    1795    2165
CTETRA     27362       1    3694    3951    4067    3842
CTETRA     27363       1    3080    4200    3490    3499
CTETRA     27364       1    3080    3490    3928    3819
CTETRA     27365       1    3430    3414    3406    2172
CTETRA     27366       1    2074    2165    4066    4097
CTETRA     27367       1    3319    3157    3081    3321
CTETRA     27368       1    3688    3948     416    3694
CTETRA     27369       1    3102    2494    3093    3060
CTETRA     27370       1    4004    2123    3949    2473
CTETRA     27371       1    3763    3520    2707    3708
CTETRA     27372       1    3079    3806    3081    3157
CTETRA     27373       1    3802    2289    3639    3807
CTETRA     27374       1    3296    3721    2879    3218
CTETRA     27375       1    1030    1029    1577    3760
CTETRA     27376       1    2662    3698    3835    3834
CTETRA     27377       1    4210    1030    1577    2284
CTETRA     27378       1    1031    1029    3760    1205
CTETRA     27379       1    4204    2289    2291    3556
CTETRA     27380       1    4216    3572    3171    1029
CTETRA     27381       1    4210     338    4211    3835
CTETRA     27382       1    3742    4204    3807    2289
CTETRA     27383       1    1637     247    3041    3027
CTETRA     27384       1    4198     131    3165    7040
CTETRA     27385       1    2739    3296    3721    5922
CTETRA     27386       1    3041     419     215     417
CTETRA     27387       1    2470    2897    7040    4198
CTETRA     27388       1    2288    1916    1137    2565
CTETRA     27389       1    3037    3832    1550    1548
CTETRA     27390       1    2723    2585    1492    4046
CTETRA     27391       1    2824    1304    2426     539
CTETRA     27392       1     597     595    3591     973
CTETRA     27393       1    3296    2739    5997    5922
CTETRA     27394       1    4053    1475    2925    6454
CTETRA     27395       1    4079    5902    2087    3554
CTETRA     27396       1     783     786    4085     784
CTETRA     27397       1     783     784    2097     785
CTETRA     27398       1    2305    2252    2303    2253
CTETRA     27399       1    4025     953    2087    2086
CTETRA     27400       1    3554    5902    2087     953
CTETRA     27401       1    4193    3048    3401    2478
CTETRA     27402       1    3034    3033    2039    1800
CTETRA     27403       1    2041    3322    2859    4193
CTETRA     27404       1    3365    3227    2201    4171
CTETRA     27405       1    3322    2127    2478    3922
CTETRA     27406       1    2039    2093    1800    3033
CTETRA     27407       1    2859    4179    1801    4103
CTETRA     27408       1    4099    2688    3679    6024
CTETRA     27409       1    2148    5446    4557    3386
CTETRA     27410       1    3892    4110    3653    3343
CTETRA     27411       1    4086    3069    3335    3386
CTETRA     27412       1    3560    2148    4086    2187
CTETRA     27413       1    3073    3560    2148    3069
CTETRA     27414       1    3344    2148    3386    5446
CTETRA     27415       1    2148    4565    3069    3386
CTETRA     27416       1    2148    3386    4557    4565
CTETRA     27417       1    5447    2148    5446    4557
CTETRA     27418       1    3344    3892    5596    3306
CTETRA     27419       1    3892    4110    3730    3306
CTETRA     27420       1    6255    1454    6180    4045
CTETRA     27421       1    1278    2722    1222    1223
CTETRA     27422       1    1483    1484    3224    4087
CTETRA     27423       1    3558    3701    2716     336
CTETRA     27424       1    1129    1355    1701     566
CTETRA     27425       1    1082    1441    1764    1489
CTETRA     27426       1    1704    1484    1705    4087
CTETRA     27427       1    1430    1481    3997    1480
CTETRA     27428       1    1484    1704    6104    6105
CTETRA     27429       1    1433    1704    6103    6104
CTETRA     27430       1    1102     551    1386    3020
CTETRA     27431       1    3727    3841    3728    1698
CTETRA     27432       1    5924    5999    2879    2152
CTETRA     27433       1    1312     650     899    1174
CTETRA     27434       1    2199    6074    3004    3104
CTETRA     27435       1    3004    3104    6074    6073
CTETRA     27436       1    2199    3104    6075    6074
CTETRA     27437       1    4118    1387    2329    3595
CTETRA     27438       1    1215    3430    3438    3415
CTETRA     27439       1    3153    3104    6073    6148
CTETRA     27440       1    3886    3784    3342     791
CTETRA     27441       1    6118    4083    6193    2143
CTETRA     27442       1    3785    3478    4102    2246
CTETRA     27443       1    3667    2353    3082    3492
CTETRA     27444       1    1940    2377    1941    3786
CTETRA     27445       1    1150     791    3387    3855
CTETRA     27446       1    1713    2925    4053    1475
CTETRA     27447       1    4006    3245    1644    4208
CTETRA     27448       1    4006    3245    3394    3257
CTETRA     27449       1    3801     712    3395    1475
CTETRA     27450       1    4006    4208    1784    2636
CTETRA     27451       1    4215    3123    3010    2188
CTETRA     27452       1    3919    2250    2389    2873
CTETRA     27453       1    1684    1655    6446    1685
CTETRA     27454       1    4007    3967     713    3382
CTETRA     27455       1    3931     971    3049    1727
CTETRA     27456       1    2613    7034    7033    2119
CTETRA     27457       1    2120    7033     486    7032
CTETRA     27458       1     129    2312    2536     128
CTETRA     27459       1    3026    3053    3121    3046
CTETRA     27460       1    3485     230     418    3486
CTETRA     27461       1    2120     486    7031    7032
CTETRA     27462       1     128    2312     130     129
CTETRA     27463       1    2536    2119    2120    7033
CTETRA     27464       1    3464    2475    3346    3494
CTETRA     27465       1    1386     551    1384    3020
CTETRA     27466       1    3463    3347    4154    4160
CTETRA     27467       1    2103    4160    5577    5576
CTETRA     27468       1    1870    3666    3463    4154
CTETRA     27469       1    3808    5500    4140    3464
CTETRA     27470       1    2543    2038     970    3194
CTETRA     27471       1    1474     162    4851    4852
CTETRA     27472       1    1474     162    4852    4853
CTETRA     27473       1    1474     162    4863    4851
CTETRA     27474       1    1474    2408    4862     162
CTETRA     27475       1    4880    1474    4865    4879
CTETRA     27476       1    1474    2408    4879    4878
CTETRA     27477       1    4867    1474    4854    1891
CTETRA     27478       1     636    1729     635    5341
CTETRA     27479       1    5341    1729     635    5340
CTETRA     27480       1    5340    5341    5353     635
CTETRA     27481       1    2526    1085    1729    2563
CTETRA     27482       1     554    3856     544    1961
CTETRA     27483       1    5365    5353     634     635
CTETRA     27484       1    4083    2246    6118    6043
CTETRA     27485       1    4083    2246    6043    6044
CTETRA     27486       1    6913     636    6912    1857
CTETRA     27487       1     636    1857    1085    5344
CTETRA     27488       1    1712    2913    3592    1713
CTETRA     27489       1    2596    2245     680    1726
CTETRA     27490       1    2913    6682    2197    6607
CTETRA     27491       1    2596     680    6682    6757
CTETRA     27492       1    2596     680    6756    1726
CTETRA     27493       1    2913    2197    2596     628
CTETRA     27494       1    1712    3592    2596    2637
CTETRA     27495       1    2913    6681    2596    6682
CTETRA     27496       1    2913     628    2928    2197
CTETRA     27497       1    2447    2371    2448    2372
CTETRA     27498       1    1939    2334    1947    2821
CTETRA     27499       1    2535    3154    3473    3902
CTETRA     27500       1    3155    3668     478    1562
CTETRA     27501       1    3480    3739    2836    2839
CTETRA     27502       1    3739    2839    3225    2071
CTETRA     27503       1    2834    2071    2836    2861
CTETRA     27504       1    4017    3634    6571    6570
CTETRA     27505       1    2506    2562    3924    3256
CTETRA     27506       1    2336    1941    2486     645
CTETRA     27507       1     400     296    2699    2077
CTETRA     27508       1    2305    4001    2075    2252
CTETRA     27509       1    2305    2075    3267    2304
CTETRA     27510       1    2342    2305    2343    3267
CTETRA     27511       1     299    2402     296     297
CTETRA     27512       1    2095     755    3773     493
CTETRA     27513       1    1598    1609     898    2099
CTETRA     27514       1    4076    5983    5907    4098
CTETRA     27515       1    1913     405    5910    5911
CTETRA     27516       1    3281    1767    1769    6138
CTETRA     27517       1    1503    2731    3763     609
CTETRA     27518       1    3211    1631    3911    3212
CTETRA     27519       1     107     104    4067     106
CTETRA     27520       1    4067     414    2076    3244
CTETRA     27521       1     107    2076    4067     104
CTETRA     27522       1     416    4067    3951     414
CTETRA     27523       1     104    1057     107    2076
CTETRA     27524       1    1522    4155     186    1523
CTETRA     27525       1    2021     186     188    1522
CTETRA     27526       1    1508     187    1362    1510
CTETRA     27527       1     187     185    3230    2026
CTETRA     27528       1    4083    2826    3478    4102
CTETRA     27529       1    3051    2025     911    4659
CTETRA     27530       1    1347    1361    1362    4131
CTETRA     27531       1    2021    2022    4155    2023
CTETRA     27532       1    3893    1509    2025     187
CTETRA     27533       1    3893    1530     186    1523
CTETRA     27534       1    3732    3139    3870    1583
CTETRA     27535       1    3780    2020    5745    3730
CTETRA     27536       1    3528    3555    3870    4027
CTETRA     27537       1    3785    2246     791    3794
CTETRA     27538       1    1533    3972    2023    1535
CTETRA     27539       1    2192    3720    1150    3853
CTETRA     27540       1    3780    3730    5745    3343
CTETRA     27541       1    3794    5892    5968     791
CTETRA     27542       1    3907     791    3855    3387
CTETRA     27543       1    3853    3923    1153    2192
CTETRA     27544       1    3892    1534    4110    3306
CTETRA     27545       1    1349     187     186    1541
CTETRA     27546       1    4083    6044    2825    4102
CTETRA     27547       1    2919    5559    2888    5558
CTETRA     27548       1    2919    3629    5635    5634
CTETRA     27549       1    2919    2888    5633    5558
CTETRA     27550       1    2844    2544    1739    3437
CTETRA     27551       1    5709    2922    5634    3629
CTETRA     27552       1    2844    2835    2833    2847
CTETRA     27553       1    2919    5633    2888     681
CTETRA     27554       1    3789    2018    3826    3825
CTETRA     27555       1    2533    2514    3624    2848
CTETRA     27556       1    2887    4096    3355    3741
CTETRA     27557       1    4096    2957    2043    3213
CTETRA     27558       1    3917    3353    4032    3611
CTETRA     27559       1    6321    2088    4191    6396
CTETRA     27560       1    4032    2234    3611    3610
CTETRA     27561       1    4177    3213    2043    3766
CTETRA     27562       1    3378    2933    1463    4177
CTETRA     27563       1    2607    3345     189     190
CTETRA     27564       1    2223    3105    2655    1488
CTETRA     27565       1    2574    2939    1200    2224
CTETRA     27566       1    2223    1487    1488    6301
CTETRA     27567       1    2224    2939    6299    2574
CTETRA     27568       1    1470    1501    2597    1466
CTETRA     27569       1    6248    3076    1039    1064
CTETRA     27570       1    2311    1603    1602    1334
CTETRA     27571       1     701    2864    2865    6021
CTETRA     27572       1    4033    4032    3354    3610
CTETRA     27573       1     126     921     195     393
CTETRA     27574       1    3638    6468    1162    6543
CTETRA     27575       1     126     921     193     195
CTETRA     27576       1     126     127    5107     909
CTETRA     27577       1    3651    4041     369     392
CTETRA     27578       1    4163    4213    4032    2235
CTETRA     27579       1    1590    2590    2585    2232
CTETRA     27580       1    2860    4104    2042    5642
CTETRA     27581       1    5568    5567    3323    4104
CTETRA     27582       1    4167    2860    5642    4144
CTETRA     27583       1    1714    2628    2727    2631
CTETRA     27584       1    3521    4104    3836    3323
CTETRA     27585       1    4104    3323    5569    3836
CTETRA     27586       1    4104    2042    5642    5567
CTETRA     27587       1    4144    4183    5644    5719
CTETRA     27588       1    3455    3635    2207    3518
CTETRA     27589       1    3279     190    2147    2605
CTETRA     27590       1    3972    2979    3308    3140
CTETRA     27591       1    4110    1524    3730    3306
CTETRA     27592       1    1534    1535    1524    3306
CTETRA     27593       1    3632    4086    2148    2187
CTETRA     27594       1    3632    5597    3892    2187
CTETRA     27595       1    3344    3849    3306    5520
CTETRA     27596       1       5    3571       6       8
CTETRA     27597       1    4124    2307    2269    2306
CTETRA     27598       1    3697     659    2160     989
CTETRA     27599       1    6641     658    3164    4005
CTETRA     27600       1     132    4026     134     658
CTETRA     27601       1    2882    3787    3784    3785
CTETRA     27602       1    1834    2383    1927    2531
CTETRA     27603       1    2349    2350    3200    2351
CTETRA     27604       1    4005     133    6642    6641
CTETRA     27605       1    3668    1562    3022     242
CTETRA     27606       1    3038    3801    3637    2636
CTETRA     27607       1    3219    3545    1765    3678
CTETRA     27608       1    3181    3324    3240    1895
CTETRA     27609       1    3859    3678     573    4046
CTETRA     27610       1    3712    4121    3010    4215
CTETRA     27611       1     740    3166    3167     765
CTETRA     27612       1     584    3262     586     818
CTETRA     27613       1    2857    2332    2560    4187
CTETRA     27614       1     810    1178     799     800
CTETRA     27615       1    1301    4208     688    2463
CTETRA     27616       1    1778    6922    1632    6923
CTETRA     27617       1    1937    2882    2826    2884
CTETRA     27618       1     187    1362    3293    3230
CTETRA     27619       1    1741    1361    1742    3587
CTETRA     27620       1    1730    2110    3146    1722
CTETRA     27621       1    1544     912    2644    4159
CTETRA     27622       1    2112    2196    1742    3587
CTETRA     27623       1    2883    3787    3732    3784
CTETRA     27624       1    1544    4159    1509    3586
CTETRA     27625       1    3189    3303    3964    3017
CTETRA     27626       1    1723    1730    3964    2658
CTETRA     27627       1    1717    3847    3864    2218
CTETRA     27628       1    4086    3972    1534    1535
CTETRA     27629       1    1583    3343    5820    5821
CTETRA     27630       1    1277    2456    2966    2968
CTETRA     27631       1    1230    2402    4030    1228
CTETRA     27632       1    2403    2310    3752    3699
CTETRA     27633       1    1863    1889    1864    2815
CTETRA     27634       1    1078     700    1080    1040
CTETRA     27635       1    2790    2511    2877     574
CTETRA     27636       1    2788    3299    4094    3132
CTETRA     27637       1    3602     473    1851     472
CTETRA     27638       1    3299    4152    4094    3735
CTETRA     27639       1    2053    3228    4493    4152
CTETRA     27640       1    3550    3537    4050    4051
CTETRA     27641       1    3843    2128     681    5631
CTETRA     27642       1    3324    2934    3429    2169
CTETRA     27643       1    4064    3325    3844    2128
CTETRA     27644       1    3843    3176    5630    5555
CTETRA     27645       1    2128     681    5707    2922
CTETRA     27646       1    4064    2128    2922     681
CTETRA     27647       1    3344    3731    5445    5446
CTETRA     27648       1    3632    3386    4086    1535
CTETRA     27649       1    1533    3308    3972    2979
CTETRA     27650       1    3972    4086    4120    1535
CTETRA     27651       1    4120    3972    3335    4086
CTETRA     27652       1    4086    3386    2148    3069
CTETRA     27653       1    4086    4120    1535    3386
CTETRA     27654       1    2023    1535    3972    4120
CTETRA     27655       1    3818    5715    3817    5790
CTETRA     27656       1    4167    4164    5791    3818
CTETRA     27657       1    3867    2783    4203    3821
CTETRA     27658       1    3784    3855    1155    3785
CTETRA     27659       1    2672    4164    2606    4167
CTETRA     27660       1    5941    3867    3821    5940
CTETRA     27661       1    5717    4167    5792    5716
CTETRA     27662       1    5792    4164    5791    4167
CTETRA     27663       1    3867    3820    2783    3821
CTETRA     27664       1    4213    2235    3284    2233
CTETRA     27665       1    3513    4116     725    2228
CTETRA     27666       1     513     192     512    2887
CTETRA     27667       1    1161     723     722    1162
CTETRA     27668       1    2501    3810    2324    4117
CTETRA     27669       1    3423    3351    3421    3350
CTETRA     27670       1    1583    3784    3787    3342
CTETRA     27671       1    2568    1276    1277    2457
CTETRA     27672       1    5971    3139    3870    4082
CTETRA     27673       1    5821    1583    2030    3870
CTETRA     27674       1    5973    3870    5897    3350
CTETRA     27675       1    3555    3870    5973    3350
CTETRA     27676       1    2827    6047    4082    6046
CTETRA     27677       1    2513    3256    4056    6349
CTETRA     27678       1    2506    2513    2508    2562
CTETRA     27679       1    2862    2807    3195    4214
CTETRA     27680       1    2520    2114    2115    3962
CTETRA     27681       1     934    3974    3575    6576
CTETRA     27682       1    2577    3924    6426    6427
CTETRA     27683       1    2562    2117    6500    6425
CTETRA     27684       1    3954    3974    3575    3576
CTETRA     27685       1    3519    3954    4196    3576
CTETRA     27686       1    2508    2117    2114     934
CTETRA     27687       1    3911    3012    4021    3013
CTETRA     27688       1    3417    2926    1788    6066
CTETRA     27689       1    4048    2927    3936    2926
CTETRA     27690       1    3936    1242    2927    2812
CTETRA     27691       1    3981    2926    6066    2893
CTETRA     27692       1    3417    4021    6142    6217
CTETRA     27693       1    3804    3125     155     231
CTETRA     27694       1    1956    2907    1958    1952
CTETRA     27695       1    1978    3790    1959    3163
CTETRA     27696       1    1980    2690    2761    2764
CTETRA     27697       1    3762    2538    4084    2594
CTETRA     27698       1    3575     934    2576    3576
CTETRA     27699       1    2576    3163    3162    3573
CTETRA     27700       1    1273    1276    2133    3018
CTETRA     27701       1    2757    2773    4010    3577
CTETRA     27702       1    4047    3331    6508    3332
CTETRA     27703       1    3572    6712    2946    3062
CTETRA     27704       1    3572    3171    1029    1205
CTETRA     27705       1    3571       8    6712    3062
CTETRA     27706       1    3572    1029    3150    1205
CTETRA     27707       1    2949    2951    3572    3150
CTETRA     27708       1    3571    3062    2953       6
CTETRA     27709       1    2949    3726    3572    2951
CTETRA     27710       1    1939    1283    2374    3059
CTETRA     27711       1    2374    6267    6343    6268
CTETRA     27712       1    2374    2243    6269    6344
CTETRA     27713       1    2374    6269    2243    6268
CTETRA     27714       1    2449    3739    2839    3225
CTETRA     27715       1    6343    6418    1283    2374
CTETRA     27716       1    2373    2374    6418    6419
CTETRA     27717       1    2336    2374    1941     645
CTETRA     27718       1    3408    1768    6140    6139
CTETRA     27719       1    5915    3427    3409    3906
CTETRA     27720       1    2132    2462    3307    2157
CTETRA     27721       1    3409    2926    2927    6926
CTETRA     27722       1    3281    1767    6138    6213
CTETRA     27723       1    3936    3409    3408    2926
CTETRA     27724       1    2415    2654    1120     880
CTETRA     27725       1    6321    1039    6397    4191
CTETRA     27726       1     217    1669    2931    3148
CTETRA     27727       1     959     945    2359     944
CTETRA     27728       1    2899     216     217    6473
CTETRA     27729       1     192    2607     515    1463
CTETRA     27730       1    1902    3746    3987    3942
CTETRA     27731       1    3555    6049    3626    3999
CTETRA     27732       1    3943    3266    2443    4093
CTETRA     27733       1    3390    5686    1344    5685
CTETRA     27734       1    3256    4056    6274    4052
CTETRA     27735       1    3256    4056    6349    6274
CTETRA     27736       1     215     417    3253    3041
CTETRA     27737       1    2576    3575    2578    2577
CTETRA     27738       1    4075    3584    2265    6278
CTETRA     27739       1    3824    2265    4075    3547
CTETRA     27740       1    3552    2956    3423    3351
CTETRA     27741       1    2711    2699    3871    3448
CTETRA     27742       1    3554    3999    3542    4079
CTETRA     27743       1    3526    4052    3626    6124
CTETRA     27744       1    2881    2883    3784    2882
CTETRA     27745       1    3626    3999    6049    6050
CTETRA     27746       1    6051    3542    4079    2550
CTETRA     27747       1    4061    4052    6123    6198
CTETRA     27748       1    4061    4052    6198    2861
CTETRA     27749       1    2827    2847    4061    2861
CTETRA     27750       1    3701    2819    1469    6109
CTETRA     27751       1    1151    3569    1153    3853
CTETRA     27752       1    2143    6041    2454    6116
CTETRA     27753       1    3618     953    3075    3529
CTETRA     27754       1    2086    3618     953    3075
CTETRA     27755       1    3554    3553    3351    3529
CTETRA     27756       1    3944    3945    3946    3986
CTETRA     27757       1    3747    2087    4079    3746
CTETRA     27758       1    5902    1747    3554    4079
CTETRA     27759       1    4079    1747    5901    5902
CTETRA     27760       1    4079    1747    5976    5901
CTETRA     27761       1    4042    3925    3618    2085
CTETRA     27762       1    3987    3768    3769    6054
CTETRA     27763       1    2882    2825    4082    4102
CTETRA     27764       1    2884    2882    2826    3528
CTETRA     27765       1    2825    6121    2827    6046
CTETRA     27766       1    2827    2072    6196    6121
CTETRA     27767       1    4082    4102    6045    5970
CTETRA     27768       1    4082    4102    5970    3139
CTETRA     27769       1    4027    3870    4082    5972
CTETRA     27770       1    4082    3870    5971    5972
CTETRA     27771       1    5896    5971    3139    3870
CTETRA     27772       1    3761    2324    4114    4085
CTETRA     27773       1    1637    3774    3027    3041
CTETRA     27774       1    1503    2679    2702    2580
CTETRA     27775       1    5826    3075     953    1747
CTETRA     27776       1    2706     402     400    2077
CTETRA     27777       1    2501    2705    3699    4117
CTETRA     27778       1    2081    3527    3259    3532
CTETRA     27779       1    2830    2343    3475    3267
CTETRA     27780       1    3259     403    2708    3532
CTETRA     27781       1    4101    3290    2007    2009
CTETRA     27782       1    3349    3351    3529    1747
CTETRA     27783       1    1150    2192    3855    3387
CTETRA     27784       1    4155     186    2108    1116
CTETRA     27785       1    2964    3058    3138    2963
CTETRA     27786       1    4048    3248    3976    3936
CTETRA     27787       1     791    5969    2246    3785
CTETRA     27788       1    3787    5969    3139    5894
CTETRA     27789       1    3342    5894    5818    3387
CTETRA     27790       1    3387    5894    5818    5893
CTETRA     27791       1    2750    2748    3912    3981
CTETRA     27792       1    3560    3336    4086    3338
CTETRA     27793       1    3560    4086    2148    3069
CTETRA     27794       1    4114    4085    3973    2828
CTETRA     27795       1    3265    4114    3336    3810
CTETRA     27796       1    4114    3339    3559    2828
CTETRA     27797       1    3560    3561    2810     370
CTETRA     27798       1    3838    3836    5571    5496
CTETRA     27799       1    5647    4184    5646    3838
CTETRA     27800       1    5646    3838    5571    5647
CTETRA     27801       1    4141    3837    3838    5496
CTETRA     27802       1    5647    3938    4180    4184
CTETRA     27803       1    3933    4013    5504    5505
CTETRA     27804       1    2737    2728    3718    3198
CTETRA     27805       1    2737    3198    3109    3110
CTETRA     27806       1    2734    5581    2745    2622
CTETRA     27807       1    3981    3683    6067    3417
CTETRA     27808       1    2631    2710    2721    2720
CTETRA     27809       1    3186    2736    2734    3367
CTETRA     27810       1    3186    3367    4531    4532
CTETRA     27811       1    1022    1499    1500    3137
CTETRA     27812       1    4216       5    3171    3571
CTETRA     27813       1    3728    3725    3726     460
CTETRA     27814       1    4124     242    3734    2269
CTETRA     27815       1    3841     666     663    3727
CTETRA     27816       1    1804    3252    3415    3413
CTETRA     27817       1    1804    5775    3243    1171
CTETRA     27818       1    1795    2011    4071    4069
CTETRA     27819       1    3430    3438    2172    3406
CTETRA     27820       1    1215    2064    3415    3438
CTETRA     27821       1    4171    3322    4193    3401
CTETRA     27822       1    3345    3706    2816    3757
CTETRA     27823       1    3585    3960    3648    2469
CTETRA     27824       1    1608    3960    3757    3755
CTETRA     27825       1    2737    2736    3110    3291
CTETRA     27826       1    2737    3110    3109    3113
CTETRA     27827       1    2629    2721    2737    2725
CTETRA     27828       1    2721    3292    2720    2710
CTETRA     27829       1    3146    3848    2216    2109
CTETRA     27830       1    2721    1576    3292    3113
CTETRA     27831       1    2737    3113    2721    3291
CTETRA     27832       1    1570    2721    3292    2720
CTETRA     27833       1    3417    2926    6066    3981
CTETRA     27834       1    2961    2083    3795    3058
CTETRA     27835       1    2961    4188    4131    2084
CTETRA     27836       1    3609    1742    1722    2112
CTETRA     27837       1    2177    3781    5665    5664
CTETRA     27838       1    2961    4131    1541    3795
CTETRA     27839       1    3859    3678    3418    2924
CTETRA     27840       1    2646    2791     873    3170
CTETRA     27841       1    4179    2818    1801    4103
CTETRA     27842       1    1886    3614    1893    1896
CTETRA     27843       1    2330    2137    3858    3523
CTETRA     27844       1    4104    4103    3521    2858
CTETRA     27845       1    3617    2865    3679    1002
CTETRA     27846       1    2136    3458    4152    2137
CTETRA     27847       1    2753    3132    4094    3830
CTETRA     27848       1    2409    2332    3043    4187
CTETRA     27849       1    3494    4150    4142    3493
CTETRA     27850       1    2364    4149    5957    2375
CTETRA     27851       1    4099    6026    4100    2689
CTETRA     27852       1    2819    6034    4090    6109
CTETRA     27853       1    4189    6034    5958    4149
CTETRA     27854       1    3678    3955    3219    3545
CTETRA     27855       1    5959    4189    6034    5958
CTETRA     27856       1    6034    4090    4149    4189
CTETRA     27857       1    1465    3117    1455    1500
CTETRA     27858       1    1467    4090    6108    6109
CTETRA     27859       1    3939    2854    4171    3322
CTETRA     27860       1    4138    2332    4187    3042
CTETRA     27861       1    2628    2001    2735    2430
CTETRA     27862       1    1220    3299    2678    2788
CTETRA     27863       1    2635    1721    1741    2643
CTETRA     27864       1    3299    3260    3222    3132
CTETRA     27865       1    2161    2429    2214    2740
CTETRA     27866       1    1431    1858    3997    4058
CTETRA     27867       1    3299    4094    3222    3735
CTETRA     27868       1    4672    3809    4732    3539
CTETRA     27869       1     256    2477    3633    2471
CTETRA     27870       1    5850    2152    2200    3243
CTETRA     27871       1    1823    3106    3340    3218
CTETRA     27872       1    3087    2556    2006    2473
CTETRA     27873       1    3677    3676     809    2571
CTETRA     27874       1    1263    3004    2199    2152
CTETRA     27875       1    3677    3823    2571     809
CTETRA     27876       1    3941    2722    3860    1248
CTETRA     27877       1    6230    4011    6305    4012
CTETRA     27878       1     814     798    3631    3220
CTETRA     27879       1    3312    3977    4126    3642
CTETRA     27880       1    3312    3977     952    3313
CTETRA     27881       1    2492    3237    4004    3236
CTETRA     27882       1    3216    3215    2171    3991
CTETRA     27883       1     574    3545    1222    2789
CTETRA     27884       1       5     658       7    4026
CTETRA     27885       1    4166     657       5     658
CTETRA     27886       1    4195    3725     149    2953
CTETRA     27887       1     158    4026    4195     160
CTETRA     27888       1       6       7       8    3149
CTETRA     27889       1       5    4026       7       6
CTETRA     27890       1    3506    1830     718     710
CTETRA     27891       1    1278    3859    3941    3860
CTETRA     27892       1    4116    3504    4207    3502
CTETRA     27893       1    3470    2387     722     710
CTETRA     27894       1    2360     377    2363     378
CTETRA     27895       1    1926     606     217     771
CTETRA     27896       1     670    1802    2355    2257
CTETRA     27897       1    3183    4018    3168    3192
CTETRA     27898       1    2937    3018    2396    3303
CTETRA     27899       1    3955    2382    2909    3219
CTETRA     27900       1    1401    1520    1402    1403
CTETRA     27901       1    2468    2816    3647    2738
CTETRA     27902       1    2889    2909    3233    2248
CTETRA     27903       1     437    3381    3233    2910
CTETRA     27904       1     738    1964    1370    1571
CTETRA     27905       1    2887    3353    3611    3355
CTETRA     27906       1    3647     191     436     437
CTETRA     27907       1     691    2804    3496     412
CTETRA     27908       1    1814     153     618     161
CTETRA     27909       1    1641    2777    1621    1778
CTETRA     27910       1    1632    1630    1788    3417
CTETRA     27911       1    3906    2415    3460    3427
CTETRA     27912       1    2708    2404    2706     403
CTETRA     27913       1    2179    3606    5810    3850
CTETRA     27914       1    1574    3300    3896    3361
CTETRA     27915       1     592    3264     472    3298
CTETRA     27916       1     175    2134    2133    2394
CTETRA     27917       1    2658    3187    3847    3188
CTETRA     27918       1    3756    2753    2217    2430
CTETRA     27919       1    2628    2631    1717    2430
CTETRA     27920       1    2854    2852    3361    1573
CTETRA     27921       1    3188    3847    3190    3187
CTETRA     27922       1     590    2788    3260    3299
CTETRA     27923       1    3912    4021    2586    3683
CTETRA     27924       1    3295    6147    3153    2599
CTETRA     27925       1     887     895    3982    2812
CTETRA     27926       1    2750    2752    2794    3683
CTETRA     27927       1    2748    2751    3912    3981
CTETRA     27928       1    2724    3936    4048    2812
CTETRA     27929       1    1766    2751    3976    1788
CTETRA     27930       1    1621    6365    1778    6364
CTETRA     27931       1    3936    3409    2926    2927
CTETRA     27932       1    2552    3739    3021    2512
CTETRA     27933       1     546    1663     544     547
CTETRA     27934       1    2671    1573    2850    2851
CTETRA     27935       1    1785    1587    1588     982
CTETRA     27936       1    3515    2795    2586    2220
CTETRA     27937       1    2005    6221    2611    2610
CTETRA     27938       1    1655    2611    6372    2939
CTETRA     27939       1    2611    2610    6221    6222
CTETRA     27940       1    2620    5807    4111    4112
CTETRA     27941       1    2755    2257    2784    2783
CTETRA     27942       1    5883    4112    5807    4173
CTETRA     27943       1     783    3568    4212    2759
CTETRA     27944       1    2923    2501    2705    3699
CTETRA     27945       1    2717    2765    2770    2769
CTETRA     27946       1    2765    3529    3618    3075
CTETRA     27947       1    2500    2007    2010    2482
CTETRA     27948       1    3349    3421    3350    3543
CTETRA     27949       1    2258    2257    4050    2783
CTETRA     27950       1    4168    4115    3625    3891
CTETRA     27951       1    3251    1803    3181    3249
CTETRA     27952       1    3404    4115    3625    3250
CTETRA     27953       1    3429    3416    5629    3176
CTETRA     27954       1    3249    3252    1171    1173
CTETRA     27955       1     106    4108     107    2888
CTETRA     27956       1    5401    3288    4350    2184
CTETRA     27957       1     813    3652    4041    4163
CTETRA     27958       1    4033    4041     368    3353
CTETRA     27959       1    3498     125    2360     811
CTETRA     27960       1     718    3500     710    1830
CTETRA     27961       1     811     813     125     378
CTETRA     27962       1    2377    4122    3786    1940
CTETRA     27963       1    2486    2159     659    3164
CTETRA     27964       1     645    6492    6491    3164
CTETRA     27965       1    2597     330    2598    2716
CTETRA     27966       1    3300    2785    2784    2850
CTETRA     27967       1    3398    3841    3961     663
CTETRA     27968       1    3724    3726    4216    1029
CTETRA     27969       1    3729    3727    4123    3725
CTETRA     27970       1    1554    3587    2196    3586
CTETRA     27971       1    3051    3586    2056     911
CTETRA     27972       1    1510    3586    1842    3587
CTETRA     27973       1    1842    3586    2196    3587
CTETRA     27974       1    3050    3586    3051    2025
CTETRA     27975       1    2961    2967    4188    2966
CTETRA     27976       1    3146    2631    2424    1715
CTETRA     27977       1    1553    1547    2056    1554
CTETRA     27978       1     158    3197     132    3022
CTETRA     27979       1    2349    3082    3667    2353
CTETRA     27980       1     656    4005    3164     658
CTETRA     27981       1    3571       5    4195    3724
CTETRA     27982       1    2373    6420    3990    3225
CTETRA     27983       1    4083    2244    2072    6194
CTETRA     27984       1    4005    6642     133    3201
CTETRA     27985       1    3197    4005     132     133
CTETRA     27986       1    1058    6545    3426     935
CTETRA     27987       1    2900     218    6548    6473
CTETRA     27988       1    1922    1929     920     193
CTETRA     27989       1    1058    6621    1923    6546
CTETRA     27990       1    3028    1923    6697    6698
CTETRA     27991       1    1929     356    3028    3130
CTETRA     27992       1     870    1922     606     920
CTETRA     27993       1    1058    2846    1929     938
CTETRA     27994       1    1049    2845     126     909
CTETRA     27995       1    3501     127    1140     125
CTETRA     27996       1     125    1140    3501    3498
CTETRA     27997       1    6692     373    6691     742
CTETRA     27998       1    1139     374     742     373
CTETRA     27999       1    6617    6542     374     742
CTETRA     28000       1     742     722    6541    6542
CTETRA     28001       1     722    1162    6542     742
CTETRA     28002       1    2887     437    3741    3233
CTETRA     28003       1    3375    3233    2889    2887
CTETRA     28004       1     340    6264    4057    3615
CTETRA     28005       1    6339     340    6264    4057
CTETRA     28006       1    6189    6264    6188    2376
CTETRA     28007       1     512    3917    3353    4032
CTETRA     28008       1    3487    3697    4122     340
CTETRA     28009       1    2372    2552    3739    3990
CTETRA     28010       1    1943    4057    2842    3615
CTETRA     28011       1    1948    2244    2143    2455
CTETRA     28012       1    2883    3870    3732    3139
CTETRA     28013       1     528    6187     336     335
CTETRA     28014       1     192    3741    4134    4096
CTETRA     28015       1    2376    6264    6188    6263
CTETRA     28016       1     335    3615    2376    6263
CTETRA     28017       1    1080    4062    1038     700
CTETRA     28018       1    3914     857    4062    1033
CTETRA     28019       1    4062    1033    6169    6170
CTETRA     28020       1    4062    1038    6246    6245
CTETRA     28021       1    4062     857    6244    1033
CTETRA     28022       1    4062    6171     700    6170
CTETRA     28023       1    4062    6169    1033    6244
CTETRA     28024       1     125     811    3652     813
CTETRA     28025       1    4177    3353    3213     368
CTETRA     28026       1     374    2845    2855    1139
CTETRA     28027       1     392    3651     126     393
CTETRA     28028       1    3652     392    3651     126
CTETRA     28029       1    4177    4041    3353     368
CTETRA     28030       1    3498     125    3652    3501
CTETRA     28031       1     385     422    1062     643
CTETRA     28032       1    4177    4041     368     369
CTETRA     28033       1    3652     392     125     813
CTETRA     28034       1    1279    2459    3860    2400
CTETRA     28035       1    4204    3742    2348    2291
CTETRA     28036       1    3641     977    2950    2189
CTETRA     28037       1     977    2950    2189    2949
CTETRA     28038       1    2949    2189    3726    2951
CTETRA     28039       1    2949    3726    1029    3572
CTETRA     28040       1    4204    2291    2950    2947
CTETRA     28041       1    1900    1899    1495    2461
CTETRA     28042       1     598    1180    5243    1099
CTETRA     28043       1    1300    1302    1336    3681
CTETRA     28044       1    1180     596    1099     598
CTETRA     28045       1    1781     628     629     973
CTETRA     28046       1    1781     973    3274     628
CTETRA     28047       1    1781     598     596    1180
CTETRA     28048       1    1095     596    1099    1900
CTETRA     28049       1    3272    1901    1495    1248
CTETRA     28050       1    1783    1900    3514     596
CTETRA     28051       1    2232    4213    2233    2235
CTETRA     28052       1    6302    6227    6303    2250
CTETRA     28053       1    2250    6378    2389    6379
CTETRA     28054       1    2250    1488    6377    6302
CTETRA     28055       1    2250    2389    6304    6379
CTETRA     28056       1    4014    1488    2250    6227
CTETRA     28057       1    4012    2250    6303    4014
CTETRA     28058       1    6453    6378    2389    1476
CTETRA     28059       1    3092    1223    1279    3097
CTETRA     28060       1    2389    2948    4012    1549
CTETRA     28061       1    4014    2250    2948    4012
CTETRA     28062       1    3751    3752    3750    3143
CTETRA     28063       1    3750    3143    4157    2141
CTETRA     28064       1    2559    1343    2849    2731
CTETRA     28065       1    2095    2096    2097    3326
CTETRA     28066       1     608     607     609    1505
CTETRA     28067       1    4202    3618    2602    4025
CTETRA     28068       1    3487     340    4122    3615
CTETRA     28069       1    3728    3726    2189     460
CTETRA     28070       1    3770    3619    2370    3495
CTETRA     28071       1    2532    2836    3739    2512
CTETRA     28072       1    6188    2376    6263    6187
CTETRA     28073       1    3479    3855    1153    3794
CTETRA     28074       1    1048    3482    3247    3248
CTETRA     28075       1    2383    2447    1435    2365
CTETRA     28076       1    3704    3705    4063    2174
CTETRA     28077       1    2332    3043    4187    3042
CTETRA     28078       1    1463    3353    4096    2043
CTETRA     28079       1    3550    2435    3538    3895
CTETRA     28080       1    3097    1991    3096    3833
CTETRA     28081       1    3398    3841    3755    3961
CTETRA     28082       1     864     672    2122     769
CTETRA     28083       1    4136    3169    3167    3166
CTETRA     28084       1    2018    3861    3687    3412
CTETRA     28085       1    2921     413    2076     415
CTETRA     28086       1    2199    3104    2655    6075
CTETRA     28087       1    6000    6001    2199    2152
CTETRA     28088       1    3093    3104    2199    3004
CTETRA     28089       1    2199    2573    6076    2655
CTETRA     28090       1    2151    2573    6002    6001
CTETRA     28091       1    4206     523     406    2259
CTETRA     28092       1    2259    4078    1310     406
CTETRA     28093       1    3096    1991    3097    3019
CTETRA     28094       1    2259    5532    2253    5533
CTETRA     28095       1    2095    2096    3326     493
CTETRA     28096       1    2648    4206     523    2101
CTETRA     28097       1     523     406    2259     524
CTETRA     28098       1    2130    3271    2971    3269
CTETRA     28099       1    1369    4199    2318    2413
CTETRA     28100       1    4118    3865    3691    3597
CTETRA     28101       1    3712    4215    3010    3382
CTETRA     28102       1    3630    3690    6592    6668
CTETRA     28103       1    3712    3776    4121    4215
CTETRA     28104       1    3032    2119    2446    2059
CTETRA     28105       1    3024    2119    2613    2120
CTETRA     28106       1     129    2536    2120     128
CTETRA     28107       1    4150    3909    3494    3275
CTETRA     28108       1    2135    4138    4178    2330
CTETRA     28109       1    3463    2103    3462    4160
CTETRA     28110       1    3346    3463    2474    3464
CTETRA     28111       1    3234    3207    3827    4200
CTETRA     28112       1    2564    3464    2475    2275
CTETRA     28113       1    2474    2103     970    2275
CTETRA     28114       1    2570    2408    6940    6941
CTETRA     28115       1    2570    4848    2408     162
CTETRA     28116       1    1491    2570    4846    2615
CTETRA     28117       1    2570    2408    6941    4871
CTETRA     28118       1    4836     162    2570    1491
CTETRA     28119       1    1491    2570    4836    6939
CTETRA     28120       1    2570    1891    4845    2615
CTETRA     28121       1    2537    5385    2420    1059
CTETRA     28122       1    1552    2420    1059    1995
CTETRA     28123       1    1292    1279    3019    2400
CTETRA     28124       1    2537    5385    1059    5384
CTETRA     28125       1    2537    2420    4876    4872
CTETRA     28126       1    2537    4876    2420    4874
CTETRA     28127       1    2537    5381    1995    5380
CTETRA     28128       1    2420    5390    4872    2537
CTETRA     28129       1    5389    2420    5390    4872
CTETRA     28130       1    2537    1995    5390    6915
CTETRA     28131       1    5383    4874    4875    2537
CTETRA     28132       1    2776     709    2797    4080
CTETRA     28133       1    2797    3612    2347    3882
CTETRA     28134       1    3882    2797    3612    3901
CTETRA     28135       1    6918    3811    6917    3613
CTETRA     28136       1    3613    6740    2985    6917
CTETRA     28137       1    2345    2985    3613    6740
CTETRA     28138       1    2345    3612    3884    2347
CTETRA     28139       1    2808    2535    3876    2807
CTETRA     28140       1    2808    3589    3876    4088
CTETRA     28141       1    4017    6496    3136    3990
CTETRA     28142       1    2805    4037    3748    3749
CTETRA     28143       1    2578    3162    2579    4023
CTETRA     28144       1    3301     912    4092    2644
CTETRA     28145       1    1517    3853    2191    4092
CTETRA     28146       1    2634    1570    1742    2720
CTETRA     28147       1    2428    2963    2961    2966
CTETRA     28148       1    1360    1362    1361    1510
CTETRA     28149       1    1148    1529    1517    3853
CTETRA     28150       1    1509    3586    4159    3050
CTETRA     28151       1     455    1559    1545    3930
CTETRA     28152       1    1368    2323    2321    2256
CTETRA     28153       1    3125    3935    3929    3792
CTETRA     28154       1     595     596    1099    1095
CTETRA     28155       1    3041    3253    2445     417
CTETRA     28156       1    1716    1717    1715    3847
CTETRA     28157       1    3605    4189    3454    2819
CTETRA     28158       1    1709    2622    2728    3879
CTETRA     28159       1    2659    2658    3187    3847
CTETRA     28160       1    2629    2631    2721    2720
CTETRA     28161       1    3606    5884    4189    5885
CTETRA     28162       1    1922     355     356     193
CTETRA     28163       1    2029    3141    1926     356
CTETRA     28164       1    1926    3141    1657     356
CTETRA     28165       1    2029    3141     356    3142
CTETRA     28166       1    1278    2722    1245    3860
CTETRA     28167       1    3028    1923    3141     356
CTETRA     28168       1    3141     356    3142     352
CTETRA     28169       1    1279    3019    2400    3092
CTETRA     28170       1     512    4032    2584    3917
CTETRA     28171       1    2395    2396    3303     474
CTETRA     28172       1    1278    1222    2722    3941
CTETRA     28173       1    2705    3752    4117    4157
CTETRA     28174       1    2078    2082    2593    2034
CTETRA     28175       1    2078    2226    2456    2079
CTETRA     28176       1    3128    3965    3964    2465
CTETRA     28177       1    3128    2966    2466    2465
CTETRA     28178       1    2550    3626    6051    3542
CTETRA     28179       1    3752    3143     746    2124
CTETRA     28180       1    3945    3947    4093    4098
CTETRA     28181       1     301     638    2156    2158
CTETRA     28182       1    2395    3303    3965    3304
CTETRA     28183       1    1291    2459    1278    1279
CTETRA     28184       1    2989    3507    3084    3985
CTETRA     28185       1    3331    6434    4035    4028
CTETRA     28186       1    2535    3710    3876    3473
CTETRA     28187       1    4047    6508    3331    4028
CTETRA     28188       1    3868    3330    3331    3869
CTETRA     28189       1    3331    6585    3869    6510
CTETRA     28190       1    3331    3869    3330    6510
CTETRA     28191       1    3031    3517    2590    1996
CTETRA     28192       1    2928     541    6609     540
CTETRA     28193       1     540     631    2928     541
CTETRA     28194       1    2990    2987    2535    3154
CTETRA     28195       1    2824    1999    1516    1304
CTETRA     28196       1    4033    4032    3353    3354
CTETRA     28197       1    6631    3802    2289    3639
CTETRA     28198       1    2289    2291    6707    6706
CTETRA     28199       1    2289    3639    6630    6631
CTETRA     28200       1    2289    2291    3556    6707
CTETRA     28201       1    2289    2302    6705    6630
CTETRA     28202       1     975    2241    2289    2302
CTETRA     28203       1    2291    2239    6781    6706
CTETRA     28204       1    3123    4121    3100    4215
CTETRA     28205       1    3271    2971    3384    3052
CTETRA     28206       1    3953    1684    1655    6446
CTETRA     28207       1    2535    3902    2384    3154
CTETRA     28208       1    2479    3092    1336    3098
CTETRA     28209       1    3383    3385    4121    3797
CTETRA     28210       1    3271    2153    1685    3916
CTETRA     28211       1    1429    1439    1437    1441
CTETRA     28212       1    1058    1923    6621     938
CTETRA     28213       1     742    1139    1140    3498
CTETRA     28214       1    2272    3638     374     935
CTETRA     28215       1     724     749     751     766
CTETRA     28216       1     811    3652     813    4163
CTETRA     28217       1    2756     815    3551    1680
CTETRA     28218       1    2672    2606    4144    4167
CTETRA     28219       1    2606    5718    5794    4144
CTETRA     28220       1    2258    2784    2783    2850
CTETRA     28221       1    3771    3084    3066    3754
CTETRA     28222       1    3771    3770    3985    3619
CTETRA     28223       1    1388    2410    2409    2332
CTETRA     28224       1    4103    2042    4104    3323
CTETRA     28225       1     979    3323    2818    3521
CTETRA     28226       1    1837    4072    1864    1889
CTETRA     28227       1    2856    2667    4143    4144
CTETRA     28228       1    4140    3346    3464    3462
CTETRA     28229       1    1633    6921    1605    3717
CTETRA     28230       1    6215    6290    1767    1788
CTETRA     28231       1    1766     692    1777    1769
CTETRA     28232       1    6213    1767    6288     412
CTETRA     28233       1    3912    4021    3911    3012
CTETRA     28234       1    3096    3428    3833    1991
CTETRA     28235       1    1619    1642    3873    1604
CTETRA     28236       1     241    3725    4195    3734
CTETRA     28237       1    3725     149     241    4195
CTETRA     28238       1    4123    3727     228    3725
CTETRA     28239       1    4123    3727    2306     228
CTETRA     28240       1    3196    3200    3201    2000
CTETRA     28241       1    1882    1879    4190    2669
CTETRA     28242       1     656    4166     158     658
CTETRA     28243       1    5091    2234    2154    3673
CTETRA     28244       1    3917    2234    2385    3611
CTETRA     28245       1    2234    3611    5126    2385
CTETRA     28246       1    3700     889    4132    1236
CTETRA     28247       1    2794    3683    2586    4135
CTETRA     28248       1    3982    3683    3682    2893
CTETRA     28249       1    3981    3976    2751    3417
CTETRA     28250       1    3247     692    1010    2751
CTETRA     28251       1    3700    1236    4132    2739
CTETRA     28252       1    2005    6145    2588    6220
CTETRA     28253       1    3683    4021    6068    6067
CTETRA     28254       1    3682    4132    5994    6069
CTETRA     28255       1    3793    3011    1687    2619
CTETRA     28256       1    1235    1093    2739    3721
CTETRA     28257       1    2203    1624    1623    2204
CTETRA     28258       1    1261    3004    3153    3104
CTETRA     28259       1     999    4204    2949    1031
CTETRA     28260       1     977    3743    2348    3742
CTETRA     28261       1    3743     975    3742     977
CTETRA     28262       1    2994    2819    3454    1469
CTETRA     28263       1    2348    2950     977    4204
CTETRA     28264       1    2290    2241    2239    2289
CTETRA     28265       1    2091     950    2895    2181
CTETRA     28266       1    4204    3802    2289    3556
CTETRA     28267       1    4174    2669    4190    3838
CTETRA     28268       1    3245    3393    3395    6677
CTETRA     28269       1    3800    3776    3009    3127
CTETRA     28270       1    1397    3245    1644    3257
CTETRA     28271       1    3245    3159    1397    2617
CTETRA     28272       1    2617    5275    6752    3159
CTETRA     28273       1    5284    2617    5275    6752
CTETRA     28274       1    4190    1883    2669    4174
CTETRA     28275       1    5275    2617    1397    3159
CTETRA     28276       1    3159    6675    1397    6750
CTETRA     28277       1    6751    3159    5290    6750
CTETRA     28278       1     800    6081    3823    2571
CTETRA     28279       1    3822    3823     815    1670
CTETRA     28280       1    2006    5928    2473    6003
CTETRA     28281       1    3677    2571    6080    6155
CTETRA     28282       1    1018    1565    3212    1962
CTETRA     28283       1     815    3823     800    1670
CTETRA     28284       1    3831    3402    3672    3676
CTETRA     28285       1    2524    3672     809    3822
CTETRA     28286       1    3822    3236    2123    3670
CTETRA     28287       1    3998    4199    3901    1252
CTETRA     28288       1    3270    3052    3692    3630
CTETRA     28289       1    2169    3325    4064    2128
CTETRA     28290       1    3429    3250    3242    3416
CTETRA     28291       1    3241    3949    5854    5853
CTETRA     28292       1    4190    4205    3493    4150
CTETRA     28293       1    1895    3237    3236    3325
CTETRA     28294       1    3242    1173    5703    5628
CTETRA     28295       1    3843    3176    5629    5630
CTETRA     28296       1    3843    5705    2128    5706
CTETRA     28297       1    3689    3687    4067    4108
CTETRA     28298       1    3629    3370    3825    3359
CTETRA     28299       1    2009    2979    3972    2210
CTETRA     28300       1    3456    4086    3336    3972
CTETRA     28301       1    3455    2955    3518    3653
CTETRA     28302       1    3972    4086    3337    3335
CTETRA     28303       1    1879    4205    4190    2669
CTETRA     28304       1    3972    2979    3140    2210
CTETRA     28305       1    3849    1524    1535    3306
CTETRA     28306       1    2770    3761    3561    3620
CTETRA     28307       1    3311    3885    3879    4111
CTETRA     28308       1    1709    2622    3879    2620
CTETRA     28309       1    2635    2630    1741    1720
CTETRA     28310       1    4130    4049    3888    5728
CTETRA     28311       1    2357    4162    5728    4049
CTETRA     28312       1    3879    2620    5731    4111
CTETRA     28313       1    1709    2634    1708    2627
CTETRA     28314       1    1859    2675    3310    3311
CTETRA     28315       1    1781    1999    3733    1179
CTETRA     28316       1    4022    3040    4016    3513
CTETRA     28317       1    1871    2356    1866    2696
CTETRA     28318       1    2889    2886    3233    2909
CTETRA     28319       1    3500     710    3470     722
CTETRA     28320       1    3472      75    6537    3040
CTETRA     28321       1    4016    3472      75    2361
CTETRA     28322       1    3512    2824    2362    2361
CTETRA     28323       1    3533    3037    1088    3503
CTETRA     28324       1    6537    3471    6613      75
CTETRA     28325       1     724    3500     710     718
CTETRA     28326       1    6385    6460    6384    3504
CTETRA     28327       1    3633    3809    4137    3650
CTETRA     28328       1     253    1623    2471    1622
CTETRA     28329       1    2711    3966    3871    3963
CTETRA     28330       1    3465    3995    4137     304
CTETRA     28331       1    3992    3963    3177    3809
CTETRA     28332       1     303     622     910     305
CTETRA     28333       1    1213    1756    1185    3970
CTETRA     28334       1    1610    6931    5615    5690
CTETRA     28335       1    3995    3996    4125    4137
CTETRA     28336       1    3539    4764     741    4732
CTETRA     28337       1    3309    4017    3962    3634
CTETRA     28338       1    3309    3634    6646    6571
CTETRA     28339       1    2367    3962    2115    3136
CTETRA     28340       1    3634    4172    3491    3962
CTETRA     28341       1    4172    2880    4194    2066
CTETRA     28342       1    3903    3134    3902    3473
CTETRA     28343       1    2193    2195    3341     456
CTETRA     28344       1    3341    4214    2999    3134
CTETRA     28345       1    2522    2193    3030    4194
CTETRA     28346       1    2193    3902    2195    2194
CTETRA     28347       1    3491    2880    2998    3083
CTETRA     28348       1    2509    2512    2532    2552
CTETRA     28349       1    3576    3980    3954    4196
CTETRA     28350       1    2890    2107    2880    4194
CTETRA     28351       1    2136    4190    3493    2137
CTETRA     28352       1    1631    1633    1642    3717
CTETRA     28353       1    3125    3929    3283    3792
CTETRA     28354       1    3702    1251    3815    3901
CTETRA     28355       1    4039    3911    3013    3211
CTETRA     28356       1     684    2787    2778     412
CTETRA     28357       1    3911    2751    1630    3417
CTETRA     28358       1    3804     231    4044    3714
CTETRA     28359       1    3118    6553    3377    3640
CTETRA     28360       1    3119    3145    3118    3640
CTETRA     28361       1     975     995     977    3743
CTETRA     28362       1     968    3118     969     932
CTETRA     28363       1     968     969    3118    6477
CTETRA     28364       1    2895    1372    2089    2181
CTETRA     28365       1    3119    3118     968     932
CTETRA     28366       1    1372    6552    3377    3118
CTETRA     28367       1    2470    2121    3485    7040
CTETRA     28368       1    3208    2446    2119    2121
CTETRA     28369       1    4186     131    3165    4198
CTETRA     28370       1    3155    3154    3492    3467
CTETRA     28371       1    2535    3903    2384    3902
CTETRA     28372       1    3667    3022    1562    1561
CTETRA     28373       1    3667    3155    1562    3668
CTETRA     28374       1    2349    3196    3491    3200
CTETRA     28375       1    2522    3491    3492    3902
CTETRA     28376       1    3491    2960    3492    2194
CTETRA     28377       1    2193    4194    2890    3030
CTETRA     28378       1    2366    3491    3634    3200
CTETRA     28379       1    1980    1981    1979    2773
CTETRA     28380       1    4106    3392    3929    4002
CTETRA     28381       1    1835    1964    2434    2436
CTETRA     28382       1    2917    2918    4009    3868
CTETRA     28383       1     170    3600    3432    3280
CTETRA     28384       1    2146    2911    3392    2806
CTETRA     28385       1    2862    3195    3791    4214
CTETRA     28386       1     707    3814    3815    4031
CTETRA     28387       1    3623    1153    1945    2841
CTETRA     28388       1    1711    3772    3850    3607
CTETRA     28389       1    1943    3615    2842    2376
CTETRA     28390       1    2840    3897    6038    6039
CTETRA     28391       1    1187    1347    2967    4188
CTETRA     28392       1    1939    2449    2243    2374
CTETRA     28393       1    1426    3155    3066    3154
CTETRA     28394       1    2371    2552    2532    3739
CTETRA     28395       1    2501    2324    3810    2325
CTETRA     28396       1     678    1920    1255    2326
CTETRA     28397       1    1747    3349    3075    3529
CTETRA     28398       1    2724    1241     895     896
CTETRA     28399       1    2081    2082    3527    3532
CTETRA     28400       1    2681    2477    2713    2700
CTETRA     28401       1    4164    3818    4167    2672
CTETRA     28402       1    6276    3627    6277    3924
CTETRA     28403       1    3584    3627    6202    3604
CTETRA     28404       1    6277    2265    3924    3584
CTETRA     28405       1     213     521     156     593
CTETRA     28406       1    3584    6278    3604    6202
CTETRA     28407       1    4075    3584    6278    3604
CTETRA     28408       1    3273    3764    3548    3765
CTETRA     28409       1    3824    4151    3577    4020
CTETRA     28410       1    3581    3582    3984    3767
CTETRA     28411       1    3582    3767    3765    6206
CTETRA     28412       1    3582    3767    6132    3984
CTETRA     28413       1    3582    3580    6282    3578
CTETRA     28414       1    3582    3767    6131    6132
CTETRA     28415       1    3582    6131    3767    6206
CTETRA     28416       1    1792     692     684    1777
CTETRA     28417       1    3067     478    3155    3668
CTETRA     28418       1    3164    2350    4005    2486
CTETRA     28419       1     663    3727     666     665
CTETRA     28420       1    3379    4166    3724    3734
CTETRA     28421       1    3067    3668    4124     476
CTETRA     28422       1    3588    3053    2609    2369
CTETRA     28423       1    3449    3728     998    2189
CTETRA     28424       1    2609    2369    3950    2308
CTETRA     28425       1    3684    4124    4123    2306
CTETRA     28426       1    2990    3154    3066    2987
CTETRA     28427       1    2633    1742    1570    3587
CTETRA     28428       1    1051    1053    1078    1037
CTETRA     28429       1    3605    2179    2178    3450
CTETRA     28430       1    1890    1160    2145    2640
CTETRA     28431       1    2549    1902    2550    2547
CTETRA     28432       1    2793    3607    2677    3450
CTETRA     28433       1    1456    3172    1481    1061
CTETRA     28434       1    2651    2652    4112    3885
CTETRA     28435       1    4099    3744    6100    6099
CTETRA     28436       1    1453    3172    1430    1456
CTETRA     28437       1    3116    6253    1497    6328
CTETRA     28438       1    2666    2689    3997    1855
CTETRA     28439       1    4099    2688    6024    6025
CTETRA     28440       1    6174    1061    3745    1064
CTETRA     28441       1    3616    1068    2864     701
CTETRA     28442       1    3115    3119     968    3881
CTETRA     28443       1    3679    5949    6024    2688
CTETRA     28444       1    2825    4082    6045    6046
CTETRA     28445       1    4027    3528    4082    3870
CTETRA     28446       1    2827    2861    4061    6122
CTETRA     28447       1    4027    3555    5973    6048
CTETRA     28448       1    2825    6045    4082    4102
CTETRA     28449       1    2825    6046    2827    4082
CTETRA     28450       1    2925    3035    3037    3039
CTETRA     28451       1    2553    4055    2814    4054
CTETRA     28452       1    1148    1529    3853    3720
CTETRA     28453       1    4188    3246    3877    2428
CTETRA     28454       1    2966    4188    2428    3246
CTETRA     28455       1    2978    2007    3057    3290
CTETRA     28456       1    1902    3747    1903    2550
CTETRA     28457       1    1348    1508    1349    1347
CTETRA     28458       1    2456    2968    3070    2966
CTETRA     28459       1    2079    2457    2226    2456
CTETRA     28460       1    2049    1747    3349    3075
CTETRA     28461       1    3554    3351    1747    3529
CTETRA     28462       1    3632    4086    3386    2148
CTETRA     28463       1    2718    2009    2979    3972
CTETRA     28464       1    3554    3747    2087    4079
CTETRA     28465       1    3542    3626    6051    3999
CTETRA     28466       1    3554    3747    4025    2087
CTETRA     28467       1    2081    3255    2082    3532
CTETRA     28468       1    1779    1581    1276    2133
CTETRA     28469       1    1695    3548    3549    2547
CTETRA     28470       1    3312    3111     952    3642
CTETRA     28471       1    3977    3978     952    3313
CTETRA     28472       1    4182    3214    3977    3202
CTETRA     28473       1    4125    3642    3643    3111
CTETRA     28474       1    1690    1691    1169    1696
CTETRA     28475       1    3977    3978    3313    3202
CTETRA     28476       1    4126    3977    3216    4128
CTETRA     28477       1    4126    3977    4128    3642
CTETRA     28478       1    3312    3111    3996    3314
CTETRA     28479       1    4190    4142    3493    2137
CTETRA     28480       1    4150    3016    3909    4141
CTETRA     28481       1    4150    4141    4142    3838
CTETRA     28482       1    3818    2258    2672    4164
CTETRA     28483       1    2668    1889    4180    4156
CTETRA     28484       1    3837    3838    3521    4141
CTETRA     28485       1    4147    4205    4180    3938
CTETRA     28486       1    2923    2311    2310    2705
CTETRA     28487       1    3838    5497    4150    4141
CTETRA     28488       1    5572    3838    5497    4150
CTETRA     28489       1    4141    2051    5421    5422
CTETRA     28490       1    3464    2475    2275    2474
CTETRA     28491       1    4095    3232    3458    2475
CTETRA     28492       1    3346    3463    4095    2474
CTETRA     28493       1    2172    2262    2171    5474
CTETRA     28494       1    3414    5475    2262    2172
CTETRA     28495       1    3404    3416    3250    3625
CTETRA     28496       1    2171    2262    3406    2238
CTETRA     28497       1    2262    3288    5400    5401
CTETRA     28498       1    2184    5401    2262    5476
CTETRA     28499       1    3288    5400    4344    2262
CTETRA     28500       1    4337    3288    5400    4344
CTETRA     28501       1     274     503     537    1342
CTETRA     28502       1    2047    1797    1795    1794
CTETRA     28503       1    4098    3945    2891    3984
CTETRA     28504       1    1982    2268    1810    4097
CTETRA     28505       1    3370    2919    4109    3629
CTETRA     28506       1    3672    3676    3677    3831
CTETRA     28507       1    2062     107    4108    2888
CTETRA     28508       1    2062    4108    3244    3412
CTETRA     28509       1    3370    2018    2888    2919
CTETRA     28510       1    3374    3370    3363    3826
CTETRA     28511       1    1876    3975    2974    2975
CTETRA     28512       1    2018    4108    2062    3412
CTETRA     28513       1    5409    2018    5484    2062
CTETRA     28514       1    3412    2062    4357    3244
CTETRA     28515       1     948     903     959     942
CTETRA     28516       1     976     905    2031     995
CTETRA     28517       1    2031     995     905    2359
CTETRA     28518       1    1922     355    1926     356
CTETRA     28519       1     990     999     974     994
CTETRA     28520       1     189    2817     437    2816
CTETRA     28521       1    2029    2090    2091     947
CTETRA     28522       1     998     994     995     977
CTETRA     28523       1    4210    3835    1578     338
CTETRA     28524       1    3742    3743    2348    2290
CTETRA     28525       1     771     772     217    1926
CTETRA     28526       1    3278     945     959    1440
CTETRA     28527       1    2621    5733    2620    5808
CTETRA     28528       1    4173    3885    4112    2620
CTETRA     28529       1    3606    2621    5809    5810
CTETRA     28530       1    1393    1970    1407    1406
CTETRA     28531       1    1529    2191    1517    3853
CTETRA     28532       1    1192    2967    2965    2966
CTETRA     28533       1      57    3893    5667    3388
CTETRA     28534       1    2458    1779    3008    2568
CTETRA     28535       1    3886    3388      57    2020
CTETRA     28536       1    4203    5941    3537    5942
CTETRA     28537       1    4203    5941    3821    3447
CTETRA     28538       1    4203    4051    3447    3821
CTETRA     28539       1    5942    4203    3538    3537
CTETRA     28540       1    4203    5867    4164    5866
CTETRA     28541       1    4050    3538    4164    4203
CTETRA     28542       1    4203    4050    3538    3537
CTETRA     28543       1    2539    1879    2669    4205
CTETRA     28544       1    3616    4169    2286     701
CTETRA     28545       1    1863    1002    1887    2815
CTETRA     28546       1    3617    1002    3679    2688
CTETRA     28547       1    1002    5872    2815    5947
CTETRA     28548       1    5948    5949    6024    3679
CTETRA     28549       1    1002    2688    4165    5949
CTETRA     28550       1    5873    1002    5872    1887
CTETRA     28551       1    4129    3457    4095    4094
CTETRA     28552       1    3299    3222    3260    1028
CTETRA     28553       1    4094    3132    3222    3830
CTETRA     28554       1    2208    1444    1443    1028
CTETRA     28555       1    3457    4129    3346    2678
CTETRA     28556       1     883     255     882    1237
CTETRA     28557       1    2653     880    3465    1609
CTETRA     28558       1    6059    1906    5984    6060
CTETRA     28559       1    3699    2482    2726    3527
CTETRA     28560       1    2310    3752    2705    2309
CTETRA     28561       1    3752    3750    3143    4157
CTETRA     28562       1    1992    2711    3871    3963
CTETRA     28563       1    1229    1230    1228     296
CTETRA     28564       1    1229     296    1228     298
CTETRA     28565       1    3871    3177    3963    3966
CTETRA     28566       1    3674    2157     795    2158
CTETRA     28567       1    1675    1472    3015    1677
CTETRA     28568       1    1061    3172    3744    3745
CTETRA     28569       1    1432    6176    3172    6177
CTETRA     28570       1    3172    3745    6175    3744
CTETRA     28571       1    4158    6400    6324    3076
CTETRA     28572       1    2590    2301    2232    1996
CTETRA     28573       1     810    3676    1178    2571
CTETRA     28574       1    2119    7036    2059    7035
CTETRA     28575       1    4794    1744    4793    2536
CTETRA     28576       1    2536    2312    1744     128
CTETRA     28577       1     129    2119    2121    2120
CTETRA     28578       1    3459    4133    4105     326
CTETRA     28579       1    7033    2119    2120    2613
CTETRA     28580       1    1338    1343    2558    2731
CTETRA     28581       1    2119    7034    7033    2536
CTETRA     28582       1     726     725     710    6463
CTETRA     28583       1    3471    6538     710     725
CTETRA     28584       1     710    6540    2387     722
CTETRA     28585       1    3513     718    3328    1826
CTETRA     28586       1     711     710     722    6465
CTETRA     28587       1     710     722    6465    6540
CTETRA     28588       1     711     739     723     724
CTETRA     28589       1    3880    3115    4158    3881
CTETRA     28590       1     905     931     959    2359
CTETRA     28591       1     217    3880    3148    2899
CTETRA     28592       1     189    3706    3345    3525
CTETRA     28593       1    2013     946     903     904
CTETRA     28594       1    1036    1415    2872    3101
CTETRA     28595       1    1067    1066    1575    2295
CTETRA     28596       1    3345    1390     962    3525
CTETRA     28597       1    2607    2043    4096    2957
CTETRA     28598       1    4096    3213    2043    3353
CTETRA     28599       1    2877    3957     436    2886
CTETRA     28600       1    3026    2614    3121    3053
CTETRA     28601       1    2533    2514    2833    2512
CTETRA     28602       1    3356    3144    3824    3547
CTETRA     28603       1    2623    2561    2693    2579
CTETRA     28604       1    3526    3626    6049    6124
CTETRA     28605       1    3624    3583    3541    2514
CTETRA     28606       1    2833    2861    4061    2847
CTETRA     28607       1    3541    3256    3583    3627
CTETRA     28608       1    3357    3583    3601    3547
CTETRA     28609       1     707     705    3814    1965
CTETRA     28610       1    2729    1142    1341    1338
CTETRA     28611       1    3126    2418     231    3600
CTETRA     28612       1    1419    2442    2757    2444
CTETRA     28613       1    2329    1656    3210    3596
CTETRA     28614       1    1423    3579    2442    3496
CTETRA     28615       1    3097    3833    1307    3695
CTETRA     28616       1    3669    3041     215    2419
CTETRA     28617       1    3273    3548    3549    3546
CTETRA     28618       1    3824    2265    2579    4023
CTETRA     28619       1    3692    3596    3597    2401
CTETRA     28620       1     955    1803    1413    1216
CTETRA     28621       1    3695    4044    3696    3833
CTETRA     28622       1    1897    1300    1246    1095
CTETRA     28623       1    2461    1897    1246    1901
CTETRA     28624       1    2807    3134    4214    3341
CTETRA     28625       1    3226    2805    1972    4037
CTETRA     28626       1    4047    3657    6507    3135
CTETRA     28627       1    3669    2419     215    2418
CTETRA     28628       1    2915    2918    3656    2920
CTETRA     28629       1    2499    3935    1965    3929
CTETRA     28630       1    3835    1445     989    3063
CTETRA     28631       1    1289    3701    1288    1984
CTETRA     28632       1    1288     336     529     528
CTETRA     28633       1    3697     340    6413    6414
CTETRA     28634       1     657     658     659     641
CTETRA     28635       1    3379    4123    4124    3734
CTETRA     28636       1    5780    3670    3949    3325
CTETRA     28637       1    4064    3844    3325    3551
CTETRA     28638       1    3325    3844    2128    5781
CTETRA     28639       1    1678     225    1683    1682
CTETRA     28640       1    4016    3513    3040    3472
CTETRA     28641       1    1153    1945    1932    2391
CTETRA     28642       1    6535     541    1502    4116
CTETRA     28643       1    4116    6535    3040    6460
CTETRA     28644       1     667    3504    1502    3510
CTETRA     28645       1    4022    4116    3510    1502
CTETRA     28646       1    4022    3513    4116    3040
CTETRA     28647       1    3510     667     630    1502
CTETRA     28648       1    3513    3472     725    3040
CTETRA     28649       1     772    2090    2029    2028
CTETRA     28650       1    2028    2090    2029     947
CTETRA     28651       1     870    2164     193     921
CTETRA     28652       1     355     357    2060    3223
CTETRA     28653       1     901     921     193    2164
CTETRA     28654       1    1153    3569    3923    3853
CTETRA     28655       1    1481    4099    3997    3680
CTETRA     28656       1     560     962     903     941
CTETRA     28657       1     355    2060     947    3223
CTETRA     28658       1     901     193    2060    2164
CTETRA     28659       1    3479    1153    2391    1945
CTETRA     28660       1    2164     921     902     901
CTETRA     28661       1    4109    2173    3629    2922
CTETRA     28662       1    4064    2128    3844    2922
CTETRA     28663       1    3737    3551    3845    3844
CTETRA     28664       1    2935    1875    3688    3694
CTETRA     28665       1    4200    1446    3660    3234
CTETRA     28666       1    3694    4067    3687    3842
CTETRA     28667       1    3251    2934     415    3429
CTETRA     28668       1    4103    2860    4104    2042
CTETRA     28669       1    2859    4179    3422    1801
CTETRA     28670       1    3816    2040    2041    3034
CTETRA     28671       1    4103    1801    2039    2093
CTETRA     28672       1    4097     416    3287    1164
CTETRA     28673       1     415    2921     104    2076
CTETRA     28674       1    2391    1155    3479    1934
CTETRA     28675       1    3623    2841    5965    3897
CTETRA     28676       1    4067    4108    3842    3244
CTETRA     28677       1    4067    4108    3244     107
CTETRA     28678       1     415     413    4168    3625
CTETRA     28679       1    4150    5497    3016    4141
CTETRA     28680       1    4150    3938    5573    5572
CTETRA     28681       1    3080    3152    4200    3207
CTETRA     28682       1    3346    3458    3493    3494
CTETRA     28683       1    2136    2135    1881    1882
CTETRA     28684       1    3938    3838    4184    5647
CTETRA     28685       1    1888    4147    1896    1892
CTETRA     28686       1    1657    2900    6548    6624
CTETRA     28687       1    2900    6548    6624    6549
CTETRA     28688       1    6624    2900    3141    1657
CTETRA     28689       1     217     218     606    1657
CTETRA     28690       1    6622    6547    1657    1923
CTETRA     28691       1    1657    3141    6623    6622
CTETRA     28692       1    1657     356    3141    1923
CTETRA     28693       1     783    2096    3750    2142
CTETRA     28694       1    2094    2097    2253    4078
CTETRA     28695       1    1366    1310    2251    2097
CTETRA     28696       1    2097    4078    3326    1310
CTETRA     28697       1    3568     784    4001    2097
CTETRA     28698       1    2095    4078    2149    3326
CTETRA     28699       1    2096    2097    3326     785
CTETRA     28700       1    2095    3326    2097    4078
CTETRA     28701       1    2094    4001    2252    2097
CTETRA     28702       1    2598     331    1016    3557
CTETRA     28703       1    1948    2143    1945    2455
CTETRA     28704       1    3205    3648    3585    3960
CTETRA     28705       1    3697     340    6414    2160
CTETRA     28706       1    3598     335     336    6262
CTETRA     28707       1    3487     335     339     340
CTETRA     28708       1     726     710    6389    6388
CTETRA     28709       1     726    6389     718     719
CTETRA     28710       1     726    6463     710    6388
CTETRA     28711       1    3500    2276    3926    1830
CTETRA     28712       1     726     719    6312    6313
CTETRA     28713       1    6388    6313    6389     726
CTETRA     28714       1    3623    5965    2841    6040
CTETRA     28715       1    6462     725    6387    6463
CTETRA     28716       1     718     726     710    6389
CTETRA     28717       1    3957    2909    2889    3678
CTETRA     28718       1     512    4033    4032    3353
CTETRA     28719       1    2933    4033    3353    4041
CTETRA     28720       1    2589    4163     811    4213
CTETRA     28721       1     711    6314     719    6389
CTETRA     28722       1    2695     740    3167     749
CTETRA     28723       1    1812     765    3168    4019
CTETRA     28724       1    3145    6479    3640    6480
CTETRA     28725       1    3002    6405    3145    6480
CTETRA     28726       1    6329    6254    6330    3117
CTETRA     28727       1    3116    1969    3115    1453
CTETRA     28728       1    3002    1005    6481    6480
CTETRA     28729       1    1088    6456     668    1089
CTETRA     28730       1     629     628     630    1088
CTETRA     28731       1    3672    3823    3822    2006
CTETRA     28732       1    1088     668    6456    2925
CTETRA     28733       1     630    1088     628     668
CTETRA     28734       1    1213    1096    1097     881
CTETRA     28735       1    2118    3485     419    3208
CTETRA     28736       1    3263    1505    1908     831
CTETRA     28737       1    2702    1504    2580    2540
CTETRA     28738       1     608    2185    1505     817
CTETRA     28739       1    3678    3545    1765    2924
CTETRA     28740       1    3696    3833    1291    1280
CTETRA     28741       1    4186    2837    2686    3165
CTETRA     28742       1    3098    3055    3391    3095
CTETRA     28743       1    2897    4198    3486    3696
CTETRA     28744       1    3859    3418    4046    3489
CTETRA     28745       1    1278    1245    2722    1223
CTETRA     28746       1    3956    3544    1291    3857
CTETRA     28747       1    3955    3219    2686    2837
CTETRA     28748       1    2556    6077    2573    2569
CTETRA     28749       1    1823    2485    3340    1806
CTETRA     28750       1     817    2730     608    3289
CTETRA     28751       1    4198    3956    3696    2897
CTETRA     28752       1     192     189     437     191
CTETRA     28753       1    1191    2938    2659    3017
CTETRA     28754       1    2793    1517    4092    3853
CTETRA     28755       1    3301    3934    5814    3569
CTETRA     28756       1    5814    3569    5813    3301
CTETRA     28757       1    2675    3311    2651    3885
CTETRA     28758       1    3569    2178    3450    2905
CTETRA     28759       1    2905    5886    2178    3605
CTETRA     28760       1    2676    1710    3606    2179
CTETRA     28761       1    2178    2905    5888    5887
CTETRA     28762       1    3569    3853    3934    3923
CTETRA     28763       1    5815    4092    5740    2191
CTETRA     28764       1    2178    2793    3301    3569
CTETRA     28765       1    1035    3729    3725    3728
CTETRA     28766       1    3084    3066    3154    2987
CTETRA     28767       1    4122    1940    4057    1282
CTETRA     28768       1    3297    3570    1153    3569
CTETRA     28769       1    1666    2493    3094    3087
CTETRA     28770       1     192     437    3741    2887
CTETRA     28771       1    2886     437     436     192
CTETRA     28772       1    3233    2886    2887     437
CTETRA     28773       1     437    2738    2816    2817
CTETRA     28774       1     437    2886    2910    3233
CTETRA     28775       1    3061    3677    3831    3672
CTETRA     28776       1     132     135     134    2050
CTETRA     28777       1     132    4005     658     134
CTETRA     28778       1     135    2219     159     132
CTETRA     28779       1    3196     132    3022    2219
CTETRA     28780       1    3687    3369    3320    3716
CTETRA     28781       1    3374    3687    3861    3369
CTETRA     28782       1    3319    3320    3369    3157
CTETRA     28783       1    3975    4108     106    4065
CTETRA     28784       1    3687    3842    4067    4108
CTETRA     28785       1    3687    3842    4334    3890
CTETRA     28786       1    3319    3694    3689    3687
CTETRA     28787       1    3102    2279    2655    3104
CTETRA     28788       1    2223    2655    2279    6226
CTETRA     28789       1     814     801    3631     798
CTETRA     28790       1    6228    4014    6303    6227
CTETRA     28791       1    4014    4012    6154    6229
CTETRA     28792       1    1370    1571    1566    1345
CTETRA     28793       1    3105    2569    2655    6227
CTETRA     28794       1    2223    2224    6300    2279
CTETRA     28795       1    2223    6301    1488    6226
CTETRA     28796       1    2556    6002    2573    6077
CTETRA     28797       1    2573    2569    6077    6152
CTETRA     28798       1    2655    2199    2573    3093
CTETRA     28799       1    2573    6001    2199    6076
CTETRA     28800       1    3282     817    1341     584
CTETRA     28801       1    1886    1863    1887    1889
CTETRA     28802       1    3550    3538    4050    3537
CTETRA     28803       1    2435    3895    2286    4170
CTETRA     28804       1    3207    3827    2412    2409
CTETRA     28805       1    1881    3858    4152    3796
CTETRA     28806       1    3702    1989    2254    2318
CTETRA     28807       1    2344     100    2345    3613
CTETRA     28808       1    2256    1369    1367    2254
CTETRA     28809       1    3055    3783    1369    2320
CTETRA     28810       1    3702    2983    3901    3882
CTETRA     28811       1    1252    3901    3998    1626
CTETRA     28812       1    3865    3811    3613    3998
CTETRA     28813       1    2333    3594    3865    3597
CTETRA     28814       1    2345    3612    2985    3884
CTETRA     28815       1    3211    3210    1687    3005
CTETRA     28816       1    3061    4012    3831    3677
CTETRA     28817       1    3758    3782    3783    3373
CTETRA     28818       1    2192    3934    2191    3853
CTETRA     28819       1    3934    2192    5815    5890
CTETRA     28820       1    5815    5740    5816    2192
CTETRA     28821       1    3934    3923    5890    5889
CTETRA     28822       1    5890    2192    5815    5891
CTETRA     28823       1    3698    3697     989     659
CTETRA     28824       1    1665    3831    3402    3672
CTETRA     28825       1    1499    3137    1016    2337
CTETRA     28826       1    3834    4216       5    2176
CTETRA     28827       1    4210     338     331    2284
CTETRA     28828       1    2661    3557    3835    3697
CTETRA     28829       1    3684    3727     665    2306
CTETRA     28830       1    3557     341    3835    3697
CTETRA     28831       1    2489    2160    3697     659
CTETRA     28832       1    2360    2363    2362     811
CTETRA     28833       1    2906    2380    2397    6689
CTETRA     28834       1    3061    3672    1666    3677
CTETRA     28835       1    6765    2380    6689    2397
CTETRA     28836       1    5059    2380    6765    2397
CTETRA     28837       1    3672    3677    3823    2006
CTETRA     28838       1    2380    5059      49    2397
CTETRA     28839       1    5058    2380    5059      49
CTETRA     28840       1     539    2426     623     624
CTETRA     28841       1    4016     539     541     631
CTETRA     28842       1     623     539     540     538
CTETRA     28843       1    2824    1996    2362    1515
CTETRA     28844       1     541     538    6685     540
CTETRA     28845       1    3733     539     631     540
CTETRA     28846       1    3691    3811    2129    3630
CTETRA     28847       1    3901    4199    3829    2983
CTETRA     28848       1    4070    3872    2280    4080
CTETRA     28849       1    2344    3613    2345    3612
CTETRA     28850       1    3612    3268    2985    3884
CTETRA     28851       1    3029    3993    6726    2106
CTETRA     28852       1    1666    3677    3672    2006
CTETRA     28853       1    2871    2106    4274    2890
CTETRA     28854       1    6800    4273    6799    3029
CTETRA     28855       1    1553    3051    5438    5513
CTETRA     28856       1    2676    3607    1708    1710
CTETRA     28857       1    1666    6079    3677    2006
CTETRA     28858       1    1722    4188    3246    2111
CTETRA     28859       1    1983    1166    1985    1984
CTETRA     28860       1     955    2299    1216    3199
CTETRA     28861       1    2084    4131    3608    4188
CTETRA     28862       1    2428    3246    2465    2966
CTETRA     28863       1    2483    2482    2969    2500
CTETRA     28864       1     126     195    5107     393
CTETRA     28865       1    1679    2974    3737    2977
CTETRA     28866       1    1622    1214    3894    2297
CTETRA     28867       1     127     126    5107    5104
CTETRA     28868       1    3216    3160    2237    3436
CTETRA     28869       1    3303    1194    3128    3964
CTETRA     28870       1    1711    3930    1559    2725
CTETRA     28871       1    3663    3664    2543    2038
CTETRA     28872       1    1730    3246    3803    2111
CTETRA     28873       1    2658    3189    3187    3188
CTETRA     28874       1    1715    3188    2109    2658
CTETRA     28875       1    1730    2111    1722    3246
CTETRA     28876       1    3414    3252    3415    3430
CTETRA     28877       1     887    3982    1236    2814
CTETRA     28878       1    1804    3415    3340    2058
CTETRA     28879       1    4034    2879    3218    2200
CTETRA     28880       1    1804    1171    3249    3252
CTETRA     28881       1    2200    4034    5849    5774
CTETRA     28882       1    3243    2152    2200    3106
CTETRA     28883       1    3435    1809    1794    3405
CTETRA     28884       1    2966    4188    1187    2967
CTETRA     28885       1     773    1108    1629    1024
CTETRA     28886       1    2823    3423    2956    3421
CTETRA     28887       1    2633    2634    1570    1742
CTETRA     28888       1    2961    2084    4131    2083
CTETRA     28889       1    3435    3675    3199    3436
CTETRA     28890       1    3108    2214    2495    1853
CTETRA     28891       1    2718    3972    3456    2009
CTETRA     28892       1    3128    2966    2465    3246
CTETRA     28893       1    2966    2963    3649    2428
CTETRA     28894       1    2079    3070    2466    2457
CTETRA     28895       1    3421    3968    3518    3653
CTETRA     28896       1    2956    1738    2317    3553
CTETRA     28897       1    1784    2463    1095     688
CTETRA     28898       1    1825     719     718     766
CTETRA     28899       1    3510    1088     630     667
CTETRA     28900       1     630    1088     668     667
CTETRA     28901       1     630     631    2928     628
CTETRA     28902       1    1687    3005    3953    2619
CTETRA     28903       1    2795    4135    2586    3516
CTETRA     28904       1    3211    3013    3011    3012
CTETRA     28905       1    3211    4039    1606    2300
CTETRA     28906       1    3211    3597    2300    3594
CTETRA     28907       1    2319    1369    2256    2254
CTETRA     28908       1     552     545     553     550
CTETRA     28909       1    1756    1757    1186    3971
CTETRA     28910       1    3971    1755    1756    1757
CTETRA     28911       1    1186    4054    3798    4139
CTETRA     28912       1    1238    4182    1756    3214
CTETRA     28913       1     255     881    1238    1761
CTETRA     28914       1    1240    1242    1119    3427
CTETRA     28915       1    1757    1759    4105    1760
CTETRA     28916       1    3459    1757    1759    4105
CTETRA     28917       1    4133    1757    4105    4119
CTETRA     28918       1     326    1119    3459    4133
CTETRA     28919       1    4139    4054    5844    4119
CTETRA     28920       1    4139    2065    2431    5771
CTETRA     28921       1    1796    3439    1794    3852
CTETRA     28922       1    2298    3650    4672    3633
CTETRA     28923       1     889    3683    4135    3682
CTETRA     28924       1    4121    3006    3403    3123
CTETRA     28925       1    4121    3403    3383    3010
CTETRA     28926       1    3394    3257    3395    3009
CTETRA     28927       1    4006    3091    4208    1644
CTETRA     28928       1    3078    3237    3240    4176
CTETRA     28929       1    3358    6599    1032    3127
CTETRA     28930       1    1622    2202    3894    3675
CTETRA     28931       1    3257    1032    4215    1397
CTETRA     28932       1    1032    3100    2153    3776
CTETRA     28933       1    1213    1824    1216    1805
CTETRA     28934       1    6372    6447    1655    1661
CTETRA     28935       1    1444    3264    3298    2113
CTETRA     28936       1    2858    2859    2039    4103
CTETRA     28937       1    4138    2859    3422    3042
CTETRA     28938       1    2667    2668    2669    4143
CTETRA     28939       1    3264    3187    3305    3190
CTETRA     28940       1    2182    2859    4187    4193
CTETRA     28941       1    4138    2859    3042    4187
CTETRA     28942       1    2859    4187    3048    3042
CTETRA     28943       1    2859    4103    1801    2039
CTETRA     28944       1    2180    4179    2818    1801
CTETRA     28945       1    1766    1778    1777    1630
CTETRA     28946       1    3815    1989    3882    3874
CTETRA     28947       1    3072    1630    1778    1633
CTETRA     28948       1    2778     412    6363    6288
CTETRA     28949       1     656     658     158    4005
CTETRA     28950       1    3724    3571    3725    4195
CTETRA     28951       1    4124    3668    3734     242
CTETRA     28952       1    3734    4195     241     240
CTETRA     28953       1    4123    2306    4124    2269
CTETRA     28954       1     294    3725     149     241
CTETRA     28955       1    2586    2587    4135    3683
CTETRA     28956       1    2005    2619    6295    2588
CTETRA     28957       1    3295    2599    2610    6147
CTETRA     28958       1    3153    2599    6072    2293
CTETRA     28959       1    3912    2752    2586    3012
CTETRA     28960       1    2293    2587    6070    4132
CTETRA     28961       1    2293    5995    4132    6070
CTETRA     28962       1    1529    3853    3720    2191
CTETRA     28963       1    1360    3587    2633    1544
CTETRA     28964       1    2020      57    5742    3388
CTETRA     28965       1    3425    3780    3886    3784
CTETRA     28966       1    2177    5665    3781    2191
CTETRA     28967       1    3264    2813    3260    4153
CTETRA     28968       1    2550    4079    6051    6052
CTETRA     28969       1    3541    3256    4052    2514
CTETRA     28970       1    2844    1739    2544    2848
CTETRA     28971       1    2547    3548    3769    3604
CTETRA     28972       1    3987    6054    3746    3768
CTETRA     28973       1    3769    3764    3767    3765
CTETRA     28974       1    2963    3138    2964    2978
CTETRA     28975       1    2978    2968    2963    3138
CTETRA     28976       1    2796    3255    2082    2081
CTETRA     28977       1    3138    3649    2963    3058
CTETRA     28978       1    3138    3649    4614    1563
CTETRA     28979       1    3138    3290    4611    4610
CTETRA     28980       1    5655    3933    2745    4130
CTETRA     28981       1    3463    2543    2103    2104
CTETRA     28982       1    1399     176    1446    3661
CTETRA     28983       1    3932    2542     752    3194
CTETRA     28984       1    2543    2474     970    2038
CTETRA     28985       1    3346    2475    4095    3458
CTETRA     28986       1    2734    3933    4013    3932
CTETRA     28987       1    1374    2788    2938     590
CTETRA     28988       1    3663    3932    2211    2543
CTETRA     28989       1    3879    5731    2622    2745
CTETRA     28990       1    3002    6407    3920    6406
CTETRA     28991       1    2113    1028    2052    1443
CTETRA     28992       1    3920    4045    3117    6331
CTETRA     28993       1    3565    3640    3002    3145
CTETRA     28994       1    1021    3145    3002    3117
CTETRA     28995       1    3920    2337    6332    6407
CTETRA     28996       1    4211    3723    1029    1030
CTETRA     28997       1    3840    2359    2031    3711
CTETRA     28998       1    1967    1453    3880    1969
CTETRA     28999       1    4058    1855    3221    3888
CTETRA     29000       1     336     528    2819    6111
CTETRA     29001       1    2043     902     967    2164
CTETRA     29002       1    4177     921    3378    3651
CTETRA     29003       1    3651    4177     369    4041
CTETRA     29004       1    4177    2043    3213    3353
CTETRA     29005       1    1537    1538    2559    1536
CTETRA     29006       1    3434    2908    2382    2910
CTETRA     29007       1    4198    3485    3486     230
CTETRA     29008       1    3486    3696    4044    2897
CTETRA     29009       1    2789    2511     574    3957
CTETRA     29010       1    3411    4186    3955    3956
CTETRA     29011       1    3956    4186    2686    2704
CTETRA     29012       1    3563    3888    4130    4049
CTETRA     29013       1    1348    1517    2643    1148
CTETRA     29014       1    3665    4130    4049    3562
CTETRA     29015       1    2735    2736    2631    3193
CTETRA     29016       1    2631    2721    3193    2736
CTETRA     29017       1    2361    2362    2004    2824
CTETRA     29018       1    4213     812    2362    3284
CTETRA     29019       1    2363    2362    2004    2361
CTETRA     29020       1    2362     812     811    2363
CTETRA     29021       1    3508    3534     631     629
CTETRA     29022       1    3534     539    4016     631
CTETRA     29023       1    3511    3513    4016    3472
CTETRA     29024       1    2232    2585    4032    2234
CTETRA     29025       1     513     192    2887    2877
CTETRA     29026       1     711    6389     718     710
CTETRA     29027       1    4213    1996    1515    2362
CTETRA     29028       1    3534    3517    2824    1999
CTETRA     29029       1    4007    2632    4215    3382
CTETRA     29030       1    1786    3511    1377    3508
CTETRA     29031       1    2636    3394    3637    4006
CTETRA     29032       1    2463    4006    3636    1301
CTETRA     29033       1    1032    2188    1397    3112
CTETRA     29034       1    2863    2567    3158    2862
CTETRA     29035       1    2384    3154    3902    3492
CTETRA     29036       1    3163    3576    3574    2576
CTETRA     29037       1    3134    3903    2807    3876
CTETRA     29038       1    3903    3473    3876    3134
CTETRA     29039       1    2521    3962    2366    2522
CTETRA     29040       1    2349    2353    3491    3082
CTETRA     29041       1    2535    3473    3154    3710
CTETRA     29042       1    3154    3902    3492    2452
CTETRA     29043       1    2519    2862    3158    3341
CTETRA     29044       1    4121    3271    2292    3384
CTETRA     29045       1    3596    2401    3210    3597
CTETRA     29046       1    3712    3010    4121    3383
CTETRA     29047       1    3692    3052    3271    3916
CTETRA     29048       1    3269    2130    3779    2971
CTETRA     29049       1    2764    4047    3656    2763
CTETRA     29050       1    6432    4010    4028    4047
CTETRA     29051       1    4047    2763    4028    3331
CTETRA     29052       1    4047    3332    6583    3657
CTETRA     29053       1    6582    3657    6507    6583
CTETRA     29054       1    3657    6507    6583    4047
CTETRA     29055       1    4047    3332    2763    3331
CTETRA     29056       1     968    6401    3115    3881
CTETRA     29057       1     968    3118    6478    6477
CTETRA     29058       1    6402     968    6401    3115
CTETRA     29059       1    3116    1497    1453    3115
CTETRA     29060       1    2513    3231    6424    6349
CTETRA     29061       1    3256    4052    2514    4056
CTETRA     29062       1    2561    2577    3924    2562
CTETRA     29063       1    3924    6275    3627    3256
CTETRA     29064       1    6276    3924    6275    3627
CTETRA     29065       1    2734    3186    5506    3198
CTETRA     29066       1    3186    3110    4530    5432
CTETRA     29067       1    3186    5431    6994    4536
CTETRA     29068       1    3186    4536    4013    5430
CTETRA     29069       1    3186    4013    5431    5430
CTETRA     29070       1    3198    5431    5507    5432
CTETRA     29071       1    2562     934    6500    2117
CTETRA     29072       1    3260    1028    2813    3264
CTETRA     29073       1    2506    3256    3583    2514
CTETRA     29074       1    2562    6350    3256    6349
CTETRA     29075       1    2577    2562    6501    6426
CTETRA     29076       1    2577    2562    6426    3924
CTETRA     29077       1    1636    1638    2516    1635
CTETRA     29078       1    1220    1444    3299     590
CTETRA     29079       1    2508     934    2562    2117
CTETRA     29080       1    2562    6500     934    6501
CTETRA     29081       1    3624    2624    3357    3583
CTETRA     29082       1    1153    2391    1155    3479
CTETRA     29083       1    2992     528     529    1930
CTETRA     29084       1    2659    3964    3187    2658
CTETRA     29085       1    1156    2643    1212    2677
CTETRA     29086       1    3755    3960    3205    3585
CTETRA     29087       1    2993    6037    2905    6036
CTETRA     29088       1     528    2376    6113    6112
CTETRA     29089       1    3064    3557     331    2598
CTETRA     29090       1    1467    6184    2716    3701
CTETRA     29091       1    2830    3267    4202    3266
CTETRA     29092       1    3763    3762    2594    2538
CTETRA     29093       1    2796    2593    2082    3255
CTETRA     29094       1    2830    3266    4202    3943
CTETRA     29095       1    2547    2550    4089    3768
CTETRA     29096       1      37      38      39    3695
CTETRA     29097       1    2938    3264    3847    3187
CTETRA     29098       1    1848    1449    1971     169
CTETRA     29099       1    2419    3774    3253    3775
CTETRA     29100       1    2418    3253     417    2942
CTETRA     29101       1    3126    2418     214     231
CTETRA     29102       1    2943    3253    2445    3041
CTETRA     29103       1     249    3041     419     215
CTETRA     29104       1     215     231    2418     418
CTETRA     29105       1     231     215     230     418
CTETRA     29106       1    2954    1514    1971    3432
CTETRA     29107       1    1848    1972    1327    3226
CTETRA     29108       1     907     747     754    1543
CTETRA     29109       1    3945    3986    4098    3946
CTETRA     29110       1    3548    4075    3546    3765
CTETRA     29111       1    3764    3987    1902    2547
CTETRA     29112       1    3273    3578    3582    3765
CTETRA     29113       1    3987    3769    3764    3767
CTETRA     29114       1    3548    3764    3769    3765
CTETRA     29115       1    2548    3541    3583    3627
CTETRA     29116       1    3298     473    2904     472
CTETRA     29117       1    2904    2113    4538    4539
CTETRA     29118       1    2976    3300    4040    2785
CTETRA     29119       1    2904    4538    2813    4591
CTETRA     29120       1    3264    3305    2904    2813
CTETRA     29121       1    2813    2904    3264    2113
CTETRA     29122       1      83     737    1218      84
CTETRA     29123       1    2035    2904    4590    4539
CTETRA     29124       1    4055    5994    5918    3682
CTETRA     29125       1    5919    4055    5994    5918
CTETRA     29126       1    3982    3682    1236    4055
CTETRA     29127       1    3682    3683    6068    2893
CTETRA     29128       1    3982    2893    2553    2812
CTETRA     29129       1    2206    2885     586    2867
CTETRA     29130       1    4073    1795    2166    4071
CTETRA     29131       1    4422    4429    2551    2168
CTETRA     29132       1    1624    4068    2714    2393
CTETRA     29133       1    3490    2168    3928    3819
CTETRA     29134       1     818    3262    2867    2866
CTETRA     29135       1    1115    1399    2175    1398
CTETRA     29136       1    2867    2206    3088    3262
CTETRA     29137       1    3262    2866    3089    2867
CTETRA     29138       1    2654    1594    1611    1593
CTETRA     29139       1    2765    3618     371    3075
CTETRA     29140       1    3635     371    3620    3561
CTETRA     29141       1    3968    2207    3518    3653
CTETRA     29142       1    3349    3075    3518    3543
CTETRA     29143       1    2766    3421    3349    3518
CTETRA     29144       1    2601    2603    2765    2766
CTETRA     29145       1    3421    3653    2030    3968
CTETRA     29146       1    2718    2009    2500    2007
CTETRA     29147       1    3245    3257    3159    3395
CTETRA     29148       1    4007     713    1301    3091
CTETRA     29149       1    1901    1246    1248    3272
CTETRA     29150       1    3395    3257    3159    3009
CTETRA     29151       1    3394    4215    3257    3009
CTETRA     29152       1    4007    3257    4215    1644
CTETRA     29153       1    1397    1644    2632    4215
CTETRA     29154       1    3393    2636    3245    3395
CTETRA     29155       1    2342    4081    2304    3266
CTETRA     29156       1    3474    2095    4030    3773
CTETRA     29157       1    2754    2976    4036    2785
CTETRA     29158       1     296    3871     855     496
CTETRA     29159       1    3751     891    2096    3773
CTETRA     29160       1    3751     891    3773     892
CTETRA     29161       1    2759    2760    4212    4085
CTETRA     29162       1    1236    4055    3682    4132
CTETRA     29163       1     887    3982    2814    2812
CTETRA     29164       1    1092    1236    1093    2814
CTETRA     29165       1    2599    6146    2293    6145
CTETRA     29166       1    1091    1090    3218    1093
CTETRA     29167       1    1093    1236    3798    2814
CTETRA     29168       1    3060    1666    2569    3061
CTETRA     29169       1    6147    6146    2599    6222
CTETRA     29170       1    2892    2879    3296    3004
CTETRA     29171       1    3700    4132     889    4135
CTETRA     29172       1    2474    3464    2475    3346
CTETRA     29173       1    1870    3463    3347    4154
CTETRA     29174       1    5499    3808    5500    4140
CTETRA     29175       1    3346    2474    4095    2475
CTETRA     29176       1    4473    5424    3808    4504
CTETRA     29177       1    5423    4485    4473    3016
CTETRA     29178       1    4140    5498    4150    5573
CTETRA     29179       1    4140    3938    5574    5573
CTETRA     29180       1    2564    5500    2275    5425
CTETRA     29181       1    3464    5500    2275    2564
CTETRA     29182       1    4504    5424    3808    5425
CTETRA     29183       1    3016    3808    3909    4473
CTETRA     29184       1    3016    4141    5422    2051
CTETRA     29185       1    1368    2322    3055    2321
CTETRA     29186       1    3095    3967    3003    1477
CTETRA     29187       1    3702    1369    4199    2318
CTETRA     29188       1    2329    2333    3597    3594
CTETRA     29189       1     556    3776    3712    3636
CTETRA     29190       1     544    3419    1656    3856
CTETRA     29191       1    1336    3095    1477    3967
CTETRA     29192       1    3778    3003    3713    3967
CTETRA     29193       1    3521    4141    2003    3837
CTETRA     29194       1    3918    3014    2180    4178
CTETRA     29195       1    2003    3521     979    3014
CTETRA     29196       1    1868    1892    2357    4154
CTETRA     29197       1    3614    1854    2666    1852
CTETRA     29198       1    1854    1892    3277    3221
CTETRA     29199       1    2936    2753    1716    3132
CTETRA     29200       1    2936    4094    2753    3132
CTETRA     29201       1    4049    4154    2357    4162
CTETRA     29202       1    4099    3997    2689    4100
CTETRA     29203       1    3665    4049    4162    4154
CTETRA     29204       1    1716    3132    1717    3847
CTETRA     29205       1    3374    3209    3369    3363
CTETRA     29206       1    1585    3996    1584    1176
CTETRA     29207       1    1755    3996    1759    4161
CTETRA     29208       1    3996    1176    3314    3111
CTETRA     29209       1    3996    1584    1176    2421
CTETRA     29210       1    3995    4125    3996    1755
CTETRA     29211       1    1623    2015    2471    2581
CTETRA     29212       1    3894    4128    3216    3160
CTETRA     29213       1    3312    1755    3314    3996
CTETRA     29214       1    3312    3313    4182    3977
CTETRA     29215       1    1755    3996    4161    3314
CTETRA     29216       1    1755    4161    1759    1760
CTETRA     29217       1    1796    4069    3675    3161
CTETRA     29218       1    3405    2236    3439    3406
CTETRA     29219       1    3439    1794    3852    2046
CTETRA     29220       1    3204    2046    3405    3439
CTETRA     29221       1    3436    3894    3216    3160
CTETRA     29222       1    4038    4069    4071    2205
CTETRA     29223       1    1803    3415    1216    1805
CTETRA     29224       1    2203    3329    2206    4071
CTETRA     29225       1    2237    2238    2171    3406
CTETRA     29226       1    2236    2237    3406    2238
CTETRA     29227       1    1163    4168    1164     416
CTETRA     29228       1    5772    3721    5847    5771
CTETRA     29229       1    1185    1186    4139    2431
CTETRA     29230       1    1093    2814    3798    1186
CTETRA     29231       1    3798    4055    1236    2739
CTETRA     29232       1    3721    2065    5772    4034
CTETRA     29233       1    3798    3721    5846    5921
CTETRA     29234       1    4139    5845    3798    5770
CTETRA     29235       1    2678    4152    3458    3457
CTETRA     29236       1    1881    3796    2330    3858
CTETRA     29237       1    2754    4107    3738    4036
CTETRA     29238       1    1112    2560    2857    2332
CTETRA     29239       1    2434    4050    3550    2435
CTETRA     29240       1    3378    3652    2274    2278
CTETRA     29241       1    3862    5789    3867    3817
CTETRA     29242       1    2652    4112    4201    2364
CTETRA     29243       1    1462    2164     921    4177
CTETRA     29244       1    3851    2364    4201    3940
CTETRA     29245       1    4130    3887    4111    5730
CTETRA     29246       1    5581    3198    2622    2734
CTETRA     29247       1    3277    2666    3614    1854
CTETRA     29248       1    3530    3889    3888    4058
CTETRA     29249       1    5954    3889    4201    3940
CTETRA     29250       1    3889    3888    5878    5803
CTETRA     29251       1    3889    3888    5803    5804
CTETRA     29252       1    4058    4100    1431    6028
CTETRA     29253       1    5877    4058    3221    3888
CTETRA     29254       1    2932    4163    4033    4041
CTETRA     29255       1    4177    2164     921     902
CTETRA     29256       1    2024    2031    2359    3711
CTETRA     29257       1    3565    3002    3640    1005
CTETRA     29258       1    2012    2502     974     976
CTETRA     29259       1    3224    1484    6180    6105
CTETRA     29260       1     992    3137    1006     991
CTETRA     29261       1    1030    4211    1577    1029
CTETRA     29262       1    2600    3920    6333    6257
CTETRA     29263       1    3920    4045    6256    6257
CTETRA     29264       1    3920    6256    4045    6331
CTETRA     29265       1    6177    1432    6178    1497
CTETRA     29266       1    6252    6177    1497    3172
CTETRA     29267       1    3122    3116    3114    3117
CTETRA     29268       1    1481    1061    4099    3680
CTETRA     29269       1    1432    4100    6102    6103
CTETRA     29270       1    6103    1432    1431    1433
CTETRA     29271       1    6327    3172    1497    3115
CTETRA     29272       1    3114    6328    3116    3115
CTETRA     29273       1    1124    3031    1589    2590
CTETRA     29274       1    2996    1590    1688     573
CTETRA     29275       1     436     192    2515    2877
CTETRA     29276       1     513    2887    3917    2889
CTETRA     29277       1    2996    3418    4046    3678
CTETRA     29278       1    2995    3956    1280    3696
CTETRA     29279       1    3411    2908    3955    4186
CTETRA     29280       1    3336    3265    2009    3337
CTETRA     29281       1    2324    4157    4117    3810
CTETRA     29282       1    2978    2979    2009    3290
CTETRA     29283       1    2009    2979    2210    3290
CTETRA     29284       1    2010    2009    3810    2008
CTETRA     29285       1    2955    3421    3518    3653
CTETRA     29286       1    3025    2059    3054    2719
CTETRA     29287       1    3774    2419    3253    3041
CTETRA     29288       1    2836    2071    3739    2512
CTETRA     29289       1    3480    2836    2834    2839
CTETRA     29290       1     631    2197     628    3733
CTETRA     29291       1    2928     631    2197     628
CTETRA     29292       1    3733    2245     637    2197
CTETRA     29293       1    1712    2913    6606    6681
CTETRA     29294       1    3274    2197    2596    2245
CTETRA     29295       1    3038    1475    1713    4053
CTETRA     29296       1    3733     631    2197     540
CTETRA     29297       1    3766    4177     369     902
CTETRA     29298       1     355     356    3223     354
CTETRA     29299       1    2782    2902    2831    3947
CTETRA     29300       1    2891    3984    6058    4098
CTETRA     29301       1    2800    3579    3578    3577
CTETRA     29302       1    2757    2758    3496    4029
CTETRA     29303       1    3824    4075    3546    3547
CTETRA     29304       1    2444    3496    2757    2758
CTETRA     29305       1    2800    2742    1421    3579
CTETRA     29306       1    2744    2773    3577    4151
CTETRA     29307       1    1537    1538    1539    1045
CTETRA     29308       1    1978    2764    3163    1959
CTETRA     29309       1    4207    4116    2228    6385
CTETRA     29310       1    3173    4207    6310    4197
CTETRA     29311       1    6311    3173    1826    4207
CTETRA     29312       1    3503    3505    4148    3504
CTETRA     29313       1    4207    3504    6309    4148
CTETRA     29314       1    4207    6311    2228    1826
CTETRA     29315       1    2232    2233    1996    2929
CTETRA     29316       1    4177     369     902    3651
CTETRA     29317       1    6385    3504    6309    4207
CTETRA     29318       1    2463    3636    4006    3637
CTETRA     29319       1    1656    1684    3596    1685
CTETRA     29320       1    3595    3269    3856    3271
CTETRA     29321       1     704    1369    1387    3702
CTETRA     29322       1    3856    3797    4121    3271
CTETRA     29323       1    1252    4118    3691    4199
CTETRA     29324       1    3098    1478    3095    3391
CTETRA     29325       1    3055    3373    3783    2320
CTETRA     29326       1    3783    1369    2413    4199
CTETRA     29327       1    3758    3783    3055    3373
CTETRA     29328       1    3690    3692    3597    2401
CTETRA     29329       1    3651     921     393     902
CTETRA     29330       1    3253     215    2419    2418
CTETRA     29331       1     168    2069    2806    2068
CTETRA     29332       1    3126     214    2418    2423
CTETRA     29333       1    2800    3273    3578    3582
CTETRA     29334       1    3041     249    3026     247
CTETRA     29335       1    1968    4037    4074    1953
CTETRA     29336       1    4000    3686    3589    3748
CTETRA     29337       1    3362    1940    1943    4122
CTETRA     29338       1    3774    3770    3495    3985
CTETRA     29339       1    2896    4124    3668    3734
CTETRA     29340       1    2353    3082    3492    3491
CTETRA     29341       1    3684    4124    2306    2307
CTETRA     29342       1    3588    3961    2878     663
CTETRA     29343       1    1034    1035    1000    3399
CTETRA     29344       1    3274    1179    3733    2245
CTETRA     29345       1    3274    2245    3733    2197
CTETRA     29346       1    3274    2197    3733     628
CTETRA     29347       1    3592     597    3274    1726
CTETRA     29348       1    3274    2596    1726    2245
CTETRA     29349       1    1781    1999    1179    1180
CTETRA     29350       1    1786    3533     629    3508
CTETRA     29351       1    3327    1826    3535    3505
CTETRA     29352       1    4213    3900     811     812
CTETRA     29353       1    3512    1591    3031    3511
CTETRA     29354       1    4213    1515    1996    2233
CTETRA     29355       1    3506    3513     718    3328
CTETRA     29356       1    3723    4210    4211    3835
CTETRA     29357       1    1030    3760    1031    1029
CTETRA     29358       1    1006    6482    2283    6483
CTETRA     29359       1    1296    3558    2598    3557
CTETRA     29360       1    3557    1578    3835     341
CTETRA     29361       1    3651     392    3652    4041
CTETRA     29362       1    3063    3835    1445    2176
CTETRA     29363       1    3379    4123    3725    3729
CTETRA     29364       1    2935    3688     416    3694
CTETRA     29365       1    3081    3928    4066    3921
CTETRA     29366       1     416    3948    4097    3287
CTETRA     29367       1    2935    3975    4067     106
CTETRA     29368       1     416    3694    3948    3951
CTETRA     29369       1     416    4067    3694    3951
CTETRA     29370       1    4066    3688    3948    4097
CTETRA     29371       1    3458    3494    2475    3334
CTETRA     29372       1    3666    4095    3463    2543
CTETRA     29373       1    1450    1191    2938    2659
CTETRA     29374       1    1867    1892    1888    1896
CTETRA     29375       1    3299    4152    3735    2053
CTETRA     29376       1    3740    4152    2209    2208
CTETRA     29377       1    2137    3458    3927    3275
CTETRA     29378       1    3788    4095    3232    3913
CTETRA     29379       1    3457    4094    3735    3913
CTETRA     29380       1    3461    3170    5762     873
CTETRA     29381       1    4182    3977    3313    3202
CTETRA     29382       1    4182    1755    3971    3090
CTETRA     29383       1    3644    3650    3151    4126
CTETRA     29384       1    1756    3214    3202    4113
CTETRA     29385       1    3643    4126    3650    3644
CTETRA     29386       1    3312    3314    1755    3090
CTETRA     29387       1    1756    1186    2431    3971
CTETRA     29388       1    1214    1215    3436    3214
CTETRA     29389       1    2415    1120    3466    1119
CTETRA     29390       1    3389    3397     495     622
CTETRA     29391       1    4126    3312    1238    3977
CTETRA     29392       1    4152    3458    3457    3228
CTETRA     29393       1    1879    3346    3493    1878
CTETRA     29394       1    2496    3530    3108    1858
CTETRA     29395       1    4150    3275    4142    4141
CTETRA     29396       1    3458    3494    3334    3275
CTETRA     29397       1    2137    3458    3275    3494
CTETRA     29398       1    3458    3232    3457    3228
CTETRA     29399       1    4205    4190    3838    4150
CTETRA     29400       1    4001     534    2097     784
CTETRA     29401       1    4042    3267    4001    2075
CTETRA     29402       1    4001    2097     534    2252
CTETRA     29403       1    2097    3568     783    2096
CTETRA     29404       1    2759     783    3750    4157
CTETRA     29405       1    3475    4042    2760    3618
CTETRA     29406       1    2660    3487    2661    3697
CTETRA     29407       1    1219    2331    1882    1881
CTETRA     29408       1    2938    2659    3017    3187
CTETRA     29409       1    2458    2480    3707    2081
CTETRA     29410       1    3751    3752     746    2403
CTETRA     29411       1     746    4743    3143     892
CTETRA     29412       1    3752    3699     746    2403
CTETRA     29413       1    3259    3699     745    3527
CTETRA     29414       1    5762    5761    3170    3905
CTETRA     29415       1    4163    4033    4041     859
CTETRA     29416       1    3610    4033    4163    3875
CTETRA     29417       1    4163    3610    2235    4032
CTETRA     29418       1    4033    4041     859     368
CTETRA     29419       1    4033    3354    3353     368
CTETRA     29420       1    3591     597     973    3274
CTETRA     29421       1    2637    6756    2596    6681
CTETRA     29422       1    3592    3274     628    2596
CTETRA     29423       1    2637    1727    5260    5256
CTETRA     29424       1    5257    1727    5260    1726
CTETRA     29425       1     377      49    2397    2380
CTETRA     29426       1    2381     538    2361    1828
CTETRA     29427       1    2906    2397    6690    6689
CTETRA     29428       1    2906     377    2397    2380
CTETRA     29429       1    2387    3471    6539     710
CTETRA     29430       1    2932    4163    3652     811
CTETRA     29431       1    1463    2043    4177    3353
CTETRA     29432       1    1068    2287     701    2286
CTETRA     29433       1    1922     606    1926     771
CTETRA     29434       1     513     512    2584    3917
CTETRA     29435       1    6323    6248    3076    1039
CTETRA     29436       1    4191    1039    3099    1084
CTETRA     29437       1    2247    2277    1724     920
CTETRA     29438       1    3917    2385    2996    2889
CTETRA     29439       1    1067    1575     769    2295
CTETRA     29440       1    1462    2164    2043     941
CTETRA     29441       1    2872    2670    2931    3099
CTETRA     29442       1    1975    2272    2277    1973
CTETRA     29443       1    1462    4177    2043    2164
CTETRA     29444       1    4158    3076    3101    2899
CTETRA     29445       1     501    1267    1342    2559
CTETRA     29446       1     616    1746     161    1306
CTETRA     29447       1    1215    1805    3415    3970
CTETRA     29448       1    3476    4125    2298    4137
CTETRA     29449       1    1215    3438    3436    3214
CTETRA     29450       1    3533     630     629    3508
CTETRA     29451       1    1241    2812    4133    1242
CTETRA     29452       1    1344     873    3170    2648
CTETRA     29453       1    1185    1091    2065    1093
CTETRA     29454       1    1622    2581    4038    1623
CTETRA     29455       1    3772    2644    1711    1545
CTETRA     29456       1    1710    1711    2621    3850
CTETRA     29457       1    3607    2179    2178    3772
CTETRA     29458       1    4188    3246    1187    1722
CTETRA     29459       1    1347    1722    4131    4188
CTETRA     29460       1    1508    1509    1517    1529
CTETRA     29461       1    4122    4057    3615     340
CTETRA     29462       1    1940    1282    3059    2455
CTETRA     29463       1    1943    1945    2842    4057
CTETRA     29464       1    3786    1282    4122    2160
CTETRA     29465       1    1282    3059    2455    6267
CTETRA     29466       1    1282    2160    6340    4057
CTETRA     29467       1    3786    2160    6416    6341
CTETRA     29468       1    6575    3974    3983    2114
CTETRA     29469       1    2114    3983    6574    2116
CTETRA     29470       1    2871    2890    2066    3029
CTETRA     29471       1    3905    5761    3170    5836
CTETRA     29472       1    2193     456    3341    2997
CTETRA     29473       1    3519    3974    3029    3993
CTETRA     29474       1    3491    3902    2194    3492
CTETRA     29475       1    2600    1500    3920    4045
CTETRA     29476       1    1466    1500    2600    4045
CTETRA     29477       1     974    3565    3937    3807
CTETRA     29478       1    1983    1984    1985    1469
CTETRA     29479       1    2236    3439    3276    3204
CTETRA     29480       1    3430    3406    2237    3438
CTETRA     29481       1    3170    3390    5760    5761
CTETRA     29482       1    3406    2172    2262    2171
CTETRA     29483       1    3170    1344    3390    5686
CTETRA     29484       1    2249    2237    2150    2238
CTETRA     29485       1    3436    2237    3216    3438
CTETRA     29486       1    3216    2171    2249    3991
CTETRA     29487       1    1338    2558    4068    2731
CTETRA     29488       1    2151    2573    6001    2199
CTETRA     29489       1    2556    2569    6078    6077
CTETRA     29490       1    2892    1235    3296    3218
CTETRA     29491       1    2436    4050    2435    2606
CTETRA     29492       1    1009    4072    4144    3709
CTETRA     29493       1    2672    4164    4050    2606
CTETRA     29494       1    1882    1867    1879    2539
CTETRA     29495       1    2669    4184    4205    3838
CTETRA     29496       1    2354    3550    2286    2435
CTETRA     29497       1    2554    4063     473    2505
CTETRA     29498       1    2668    3709    4143    4072
CTETRA     29499       1    3782    3797    3758    3269
CTETRA     29500       1    2413    3270    2131    3269
CTETRA     29501       1    3783    1369    2320    2413
CTETRA     29502       1    3515    3011    3793    2586
CTETRA     29503       1    3662    3703    3704    3705
CTETRA     29504       1    3827    3659    2409    3207
CTETRA     29505       1    2330    2332    3483    2222
CTETRA     29506       1    1864    4072    4170    4156
CTETRA     29507       1    2231    3379    4123    4124
CTETRA     29508       1    2489    2160    3786    4122
CTETRA     29509       1    2489    4122    3487    3697
CTETRA     29510       1    1426    3067    3066    3155
CTETRA     29511       1    5761    5686    5762    3170
CTETRA     29512       1    4123    2269    4124    3734
CTETRA     29513       1    4123    2269     241     228
CTETRA     29514       1     294    3725     241     228
CTETRA     29515       1    1743    2615    4831    4830
CTETRA     29516       1    4818    1745    4831    1743
CTETRA     29517       1    3564    3665    4154    4049
CTETRA     29518       1    1743    2019    1490    2615
CTETRA     29519       1    1743    1745    4806    4818
CTETRA     29520       1    3933    3932    2542    4013
CTETRA     29521       1    1490    1743    2685    2019
CTETRA     29522       1    2840    1930    2842    2376
CTETRA     29523       1    2842    6264    3615    4057
CTETRA     29524       1    1943    2842    1932    1930
CTETRA     29525       1    6190    2842    4057    6265
CTETRA     29526       1    2842    2454    6190    2455
CTETRA     29527       1    2970    5302    6744    5295
CTETRA     29528       1    2970    5298    2971    5304
CTETRA     29529       1    2130    5295    5298    2970
CTETRA     29530       1    5289    2130    5295    5298
CTETRA     29531       1    5295    2130    3630    2970
CTETRA     29532       1    2970    5304    2292    6745
CTETRA     29533       1    2970    3384    2292    2971
CTETRA     29534       1    2859    3322    2478    4193
CTETRA     29535       1    1800    2859    1801    2039
CTETRA     29536       1    2859    2041    2853    2039
CTETRA     29537       1    3034    2127    5415    1800
CTETRA     29538       1    3933    4013    2542    5504
CTETRA     29539       1    3034    5414    3317    5489
CTETRA     29540       1    2589    4163    4032    4033
CTETRA     29541       1    3502    3504    3503    3510
CTETRA     29542       1    3533     630    3510    1088
CTETRA     29543       1    3508    4022    3510     630
CTETRA     29544       1    2734    3932    4013    3186
CTETRA     29545       1    3591    3931     597    3592
CTETRA     29546       1    1091    1213    1096    1097
CTETRA     29547       1    3147    4974       8    4968
CTETRA     29548       1    3147       8    4974    6789
CTETRA     29549       1    3147       8    6714    3149
CTETRA     29550       1    3147    6790    6859    4973
CTETRA     29551       1    6859    3147    6789    6790
CTETRA     29552       1    6790    3147    6715     134
CTETRA     29553       1    4968    3147    4972       6
CTETRA     29554       1       6    3147    4972     160
CTETRA     29555       1    3147    4026       6    3149
CTETRA     29556       1    4973    3147    6790    2050
CTETRA     29557       1    2793    1148    2643    1517
CTETRA     29558       1    3964    2658    3189    3187
CTETRA     29559       1    3129    1277    1276    2457
CTETRA     29560       1    4100    6103    1432    1431
CTETRA     29561       1    3933    2745    5580    5655
CTETRA     29562       1    2658    1715    3188    3847
CTETRA     29563       1    5578    2104    5579    3665
CTETRA     29564       1    4006    2636    3245    4208
CTETRA     29565       1    3245    6677    2617     971
CTETRA     29566       1    3031    2232    2589    4213
CTETRA     29567       1    3257    3159    1397    3245
CTETRA     29568       1    3511    3512    3472    4016
CTETRA     29569       1    2617    4208    1644    3245
CTETRA     29570       1    2463    4208     688    1784
CTETRA     29571       1    4172    4194    3030    2066
CTETRA     29572       1    3491    3083    2107    2880
CTETRA     29573       1    2193    3491    2959    4194
CTETRA     29574       1    3196    3082     744    2219
CTETRA     29575       1    3274    3733    1781     628
CTETRA     29576       1    3534    3733     631     628
CTETRA     29577       1    2301    2929    1996    1998
CTETRA     29578       1    1781    1782    1997     596
CTETRA     29579       1    1781    3274    1179    3733
CTETRA     29580       1    3419    1685    3271    2153
CTETRA     29581       1    3092    1336    1478    2162
CTETRA     29582       1    1960    2329    1961    1656
CTETRA     29583       1    3675    3276    2237    3439
CTETRA     29584       1    2203    2206    3329    3262
CTETRA     29585       1    1350    1409    1351    1412
CTETRA     29586       1    3713    3778    3967    3382
CTETRA     29587       1    3856    3596    3271    1685
CTETRA     29588       1    3712    4121    3856    3797
CTETRA     29589       1    3856    1685    1656    3596
CTETRA     29590       1    3712    3967    3636    4007
CTETRA     29591       1    4121    3271    3385    2292
CTETRA     29592       1    3797    4121    3271    3385
CTETRA     29593       1    3439    2237    3675    3435
CTETRA     29594       1    3085    2151    5927    5926
CTETRA     29595       1    1625    4038    4069    4071
CTETRA     29596       1    2711    2700    2699    3448
CTETRA     29597       1    1242    2927     325    4043
CTETRA     29598       1    3402     810    3676    3294
CTETRA     29599       1    2203    3262    3088    2206
CTETRA     29600       1    2714    2540    2702    2682
CTETRA     29601       1    2404    1955    2706     400
CTETRA     29602       1    4030    2402    3773     297
CTETRA     29603       1    4026       7       6    3149
CTETRA     29604       1     158     658    4166    4026
CTETRA     29605       1    1631    3717    1632    1633
CTETRA     29606       1    3211    2300    3210    3005
CTETRA     29607       1    1792    3072    1777    1641
CTETRA     29608       1    3911    1630    1632    3417
CTETRA     29609       1    1778    1630    1632    1633
CTETRA     29610       1    4039    3013    6217    6292
CTETRA     29611       1    1778    6923    1632    1788
CTETRA     29612       1    1958    2772    2092     826
CTETRA     29613       1    1957    1958    3658    2772
CTETRA     29614       1    2772    1958    3658    2980
CTETRA     29615       1    1951    1953    3988    1952
CTETRA     29616       1    2764    1958    3658    1959
CTETRA     29617       1    1956    2772    1958    1957
CTETRA     29618       1    3700    4135    2293    4132
CTETRA     29619       1    2293    4132    5996    2739
CTETRA     29620       1    1822    3106    3078    1806
CTETRA     29621       1     889    4135    4132    3682
CTETRA     29622       1    3982    4055    1236    2814
CTETRA     29623       1    2293    4132    5995    5996
CTETRA     29624       1    1519    1148    3720    1529
CTETRA     29625       1    1156    1151    1148    2793
CTETRA     29626       1    1109    1221    1389    1219
CTETRA     29627       1    4155    2023    1540    2021
CTETRA     29628       1    1541    1522    1542     188
CTETRA     29629       1    2984    1521    4110    1534
CTETRA     29630       1    3926    2589    2932     811
CTETRA     29631       1     187    2026    2025     185
CTETRA     29632       1    1362    1541    4131    3230
CTETRA     29633       1    1547    2056    4544    5437
CTETRA     29634       1    5435    1547    4461    5436
CTETRA     29635       1    2056    1553    5437    1547
CTETRA     29636       1    3051    2056    1553    5437
CTETRA     29637       1    4658    5438    4654    3051
CTETRA     29638       1    3031    2232    4213    1996
CTETRA     29639       1    2056    4461    4545    1546
CTETRA     29640       1    2633    1544    1559    2644
CTETRA     29641       1    1360    1544    2644    1509
CTETRA     29642       1    1553    4159    3586    3050
CTETRA     29643       1    1546     455    5510    1576
CTETRA     29644       1    1606    3594    2300    3690
CTETRA     29645       1    1604    1606    3594    1605
CTETRA     29646       1    3691    6591    3865    3811
CTETRA     29647       1    1604    3873    6919    1605
CTETRA     29648       1    1642    1604    1605    3873
CTETRA     29649       1    4083    3478    2244    2143
CTETRA     29650       1     724     710     711     718
CTETRA     29651       1    3479    3794    2143    2246
CTETRA     29652       1    2143    2244    6193    6192
CTETRA     29653       1    3479    3623    2143    3794
CTETRA     29654       1    2143    2455    6192    6116
CTETRA     29655       1    3137    3002    1006    3920
CTETRA     29656       1    3137    1500    3117    3920
CTETRA     29657       1    6482    1005    6481    3002
CTETRA     29658       1    3002    6406    3117    6405
CTETRA     29659       1    6407    3920    2337    1006
CTETRA     29660       1    3563    3887    4130    3888
CTETRA     29661       1    3887    4111    5730    5805
CTETRA     29662       1    4201    5880    3887    5879
CTETRA     29663       1    2483    2968    2080    2456
CTETRA     29664       1     400    2402     401    2403
CTETRA     29665       1    3674     795    2683    2158
CTETRA     29666       1    4076    3947    4098    4093
CTETRA     29667       1    1593    3461    5764    5689
CTETRA     29668       1    1913    1907    5910     405
CTETRA     29669       1    3581    1918    3984    2803
CTETRA     29670       1    1203    1624    1339    2472
CTETRA     29671       1    1119    3427    1242    3466
CTETRA     29672       1    2714    4068    2540    2393
CTETRA     29673       1    1709    3719    2725    3718
CTETRA     29674       1    2737    2728    3198    2736
CTETRA     29675       1    2635    1212    1721    2643
CTETRA     29676       1    1191    1193    3018    1194
CTETRA     29677       1    2628    1716    2753    1717
CTETRA     29678       1    2727    2631    2736    2721
CTETRA     29679       1    2734    3933    5580    5505
CTETRA     29680       1    2745    2622    5581    5656
CTETRA     29681       1    2745    2728    2622    3879
CTETRA     29682       1    5580    3933    2734    2745
CTETRA     29683       1    2005    6145    2599    2587
CTETRA     29684       1    3832    3676    1548    3536
CTETRA     29685       1    3447    3821    3443    6016
CTETRA     29686       1    3036    3294    3832    3536
CTETRA     29687       1    3102    2569    2573    2655
CTETRA     29688       1    1387    3702    1369    4199
CTETRA     29689       1    3403    3383    3385    4121
CTETRA     29690       1    2809    1488    2223    3919
CTETRA     29691       1    3926    1830    1591    3512
CTETRA     29692       1    1197    3919    2223    1487
CTETRA     29693       1    1462     962     941    2043
CTETRA     29694       1    3638    6467    1162    6468
CTETRA     29695       1    1976     858    1977     723
CTETRA     29696       1    3638     935    6544     374
CTETRA     29697       1    3638     723    6467    6392
CTETRA     29698       1     723    1162    6467    6542
CTETRA     29699       1     723    1162    6542     722
CTETRA     29700       1    2296    2695     856    2694
CTETRA     29701       1    1976    1973    3645    3426
CTETRA     29702       1    1117    1759    1611    3459
CTETRA     29703       1     739     858     723    1977
CTETRA     29704       1    2513    2562    6349    6424
CTETRA     29705       1    2115    3231    2552    3136
CTETRA     29706       1    2115    3962    2116    3136
CTETRA     29707       1    3066    1426    2990    3068
CTETRA     29708       1    4172    3983    2114    2116
CTETRA     29709       1    4172    2114    3983    3030
CTETRA     29710       1    2193    2194    3491    3902
CTETRA     29711       1    2193    2959    3491    2194
CTETRA     29712       1     656    2350    4005    3197
CTETRA     29713       1    4172    3491    4194    2880
CTETRA     29714       1    3420    1953    4074    4037
CTETRA     29715       1    1598     303    1609    2099
CTETRA     29716       1    1952    4037    1953    3229
CTETRA     29717       1    2907    1953    1952    4037
CTETRA     29718       1    1958    2920    1952    1950
CTETRA     29719       1    1953    4037    3420    3229
CTETRA     29720       1    2915    1952    1951    3988
CTETRA     29721       1    2761    2763    1980    2764
CTETRA     29722       1    3076    2899    3099    3101
CTETRA     29723       1    3099    1061    3745    3101
CTETRA     29724       1    3076    1064    6249    3745
CTETRA     29725       1    6400    2899    3076    4158
CTETRA     29726       1    4158    3881    6401    6400
CTETRA     29727       1    1039    3076    3099    1064
CTETRA     29728       1    3076    1064    6248    6249
CTETRA     29729       1    1778    2778    6289    1767
CTETRA     29730       1    1778    2778    6364    6289
CTETRA     29731       1    1778    1632    6922    1633
CTETRA     29732       1    2777    1778    2778    6364
CTETRA     29733       1    1621    1633    6365    6440
CTETRA     29734       1    2802    3984    2803    2801
CTETRA     29735       1     691    1396    1423    2804
CTETRA     29736       1    2099     898    2647    1609
CTETRA     29737       1    3356    3824    3546    3547
CTETRA     29738       1    2749    2752    3912    3012
CTETRA     29739       1    6211    2804    6286    6210
CTETRA     29740       1    3461    2415    3460    3906
CTETRA     29741       1    1406    1919    3281    1769
CTETRA     29742       1    2729    1142    1338    1343
CTETRA     29743       1    1396     412    6212    6211
CTETRA     29744       1     304    1609     303    3992
CTETRA     29745       1    1621    2777    6364    1778
CTETRA     29746       1     913    1692    1916    1691
CTETRA     29747       1    3025    3041    3027    3054
CTETRA     29748       1    3585    2469    2870    2612
CTETRA     29749       1    4117    2126    3699    2726
CTETRA     29750       1    1534    3632    3484    4086
CTETRA     29751       1    3349    3351    3553    3529
CTETRA     29752       1    4202    3942    3747    3943
CTETRA     29753       1    2706    2699    2701    2077
CTETRA     29754       1    3752    4117    4157    2124
CTETRA     29755       1    4117    3699    2482    2726
CTETRA     29756       1    2547    3604    3769    3768
CTETRA     29757       1    3769    3765    6204    3604
CTETRA     29758       1    6128    6129    3604    3768
CTETRA     29759       1    2654    3461    1593     898
CTETRA     29760       1    3987    2547    3769    3768
CTETRA     29761       1    3097    1280    1223    1279
CTETRA     29762       1     614     730    1690    1169
CTETRA     29763       1    3541    3626    3526    4052
CTETRA     29764       1    3541    3627    3626    4052
CTETRA     29765       1    3356    3548    3547    3546
CTETRA     29766       1    2603    1903    3554    3553
CTETRA     29767       1    1422    2442    2444    3496
CTETRA     29768       1    3579    4029    4010    2757
CTETRA     29769       1    1915    2742    3273    3549
CTETRA     29770       1    1307     156     154      37
CTETRA     29771       1    2743    3577    3824    4151
CTETRA     29772       1    3273    3577    3578    3546
CTETRA     29773       1    1423    3496    2804    4029
CTETRA     29774       1    3579    3577    4010    3578
CTETRA     29775       1    2904     472     473     471
CTETRA     29776       1     471     472     474    3303
CTETRA     29777       1    2904     471    2406    4590
CTETRA     29778       1     471    4602    2406    4590
CTETRA     29779       1     471     474    2407    4601
CTETRA     29780       1    2407     474     471    2406
CTETRA     29781       1    2757    2763    2758    4028
CTETRA     29782       1     883     882    1069    1237
CTETRA     29783       1    3577    4020    4151    4024
CTETRA     29784       1    3577    3546    4020    3578
CTETRA     29785       1    1395    1909    1396    2802
CTETRA     29786       1    2742    3273    3546    3577
CTETRA     29787       1    1848    4088    2806    2805
CTETRA     29788       1    1979    3135    2773    4024
CTETRA     29789       1    3087    2151    2556    2473
CTETRA     29790       1    3102    2655    3105    2569
CTETRA     29791       1    3823    6080    2006    3677
CTETRA     29792       1    1415    2872    3101    1060
CTETRA     29793       1    3093    2573    2151    2199
CTETRA     29794       1    2010    4077    2007    2008
CTETRA     29795       1    2010    2008    3810    3522
CTETRA     29796       1    2010    2726    2482    4077
CTETRA     29797       1    2768    3456    3628    3336
CTETRA     29798       1    4101    2007    2008    2009
CTETRA     29799       1    3294     860     810    2282
CTETRA     29800       1    2501    2500    2010    2482
CTETRA     29801       1    1537    2849    2559    1343
CTETRA     29802       1    2765    2769    3518    3635
CTETRA     29803       1    3568    4042    3469    4001
CTETRA     29804       1    2342    2305    2304    2303
CTETRA     29805       1    2340    2648    1331     649
CTETRA     29806       1    2305    4001    3267    2075
CTETRA     29807       1    3751     892    2402    2403
CTETRA     29808       1    2402     892    3773     508
CTETRA     29809       1    2402    3773     297     508
CTETRA     29810       1    1229    3871     496    3397
CTETRA     29811       1     400     296    2077     299
CTETRA     29812       1     400    1955    1266     296
CTETRA     29813       1    2645    2646    2650    2791
CTETRA     29814       1    3259    2481    3007    2923
CTETRA     29815       1    2402    2403     509     401
CTETRA     29816       1     509    2402     892    2403
CTETRA     29817       1    4202    4042    2085    3267
CTETRA     29818       1    4042    3267    2075    2085
CTETRA     29819       1    4042    4001     612    2075
CTETRA     29820       1    2340    2095    2094    4078
CTETRA     29821       1    2343    2305    4001    3267
CTETRA     29822       1    3568     612    4001     784
CTETRA     29823       1    2760    3618    4042    3925
CTETRA     29824       1    3109    3110    3198    5433
CTETRA     29825       1    3109    3113    3110    4526
CTETRA     29826       1    3718    3930    1576    3109
CTETRA     29827       1    2737    2721    1576    2725
CTETRA     29828       1    2737    2721    3113    1576
CTETRA     29829       1    5651    3462    4160    3347
CTETRA     29830       1    3462    2103    5576    4160
CTETRA     29831       1    3462    5650    3347    5651
CTETRA     29832       1    3462    2103    5500    5501
CTETRA     29833       1    3462    2103    5501    5576
CTETRA     29834       1    3464    2474    2275    2103
CTETRA     29835       1    3938    5649    4147    4175
CTETRA     29836       1    4140    4175    3938    1878
CTETRA     29837       1    3413    5551    1173    3414
CTETRA     29838       1    5626    3413    5551    1173
CTETRA     29839       1    3404    3250    1173    3252
CTETRA     29840       1    3404    3430    3406    3405
CTETRA     29841       1    3404    3414    3252    1173
CTETRA     29842       1    2236    3407    2262    3406
CTETRA     29843       1    3404    5476    3414    5551
CTETRA     29844       1    4115    3405    3407    3288
CTETRA     29845       1    3545     573    3859    3678
CTETRA     29846       1    3663    3564    3666    3664
CTETRA     29847       1    3664    2037    2753    4094
CTETRA     29848       1    3663    2735    2211    3932
CTETRA     29849       1    3545     574    3678    3957
CTETRA     29850       1    2628    2430    2753    2001
CTETRA     29851       1    3663    3564    2628    2746
CTETRA     29852       1    4129    3664    4095    3666
CTETRA     29853       1    3563    3887    4111    4130
CTETRA     29854       1    5579    5654    5578    3665
CTETRA     29855       1    5654    5729    5653    4162
CTETRA     29856       1    2734    2622    2728    3198
CTETRA     29857       1    4130    3933    5654    5655
CTETRA     29858       1    2628    2430    2735    2631
CTETRA     29859       1    4162    5729    5653    5728
CTETRA     29860       1    4125    3650    4137    3445
CTETRA     29861       1    1824     956    1805    2485
CTETRA     29862       1    2298    4125    3650    4137
CTETRA     29863       1    4125    3444    2421    3445
CTETRA     29864       1    4125    3996    3111    2421
CTETRA     29865       1    3168    3166    6089    6164
CTETRA     29866       1    3168    4019     765    6163
CTETRA     29867       1    3191    6012    3192    2604
CTETRA     29868       1    3192    2604    6013    6014
CTETRA     29869       1    3168    6164     765    3166
CTETRA     29870       1    3078    4176    1172    3085
CTETRA     29871       1    2492    3078    2493    3087
CTETRA     29872       1    1622    4038    2581    4069
CTETRA     29873       1    1213    1238    1761    1756
CTETRA     29874       1    3721    3218    4034    2879
CTETRA     29875       1    1093    2739    3798    1236
CTETRA     29876       1     761     762    2485    1823
CTETRA     29877       1    3721    3798    5771    2065
CTETRA     29878       1    3721    2879    4034    5922
CTETRA     29879       1    5771    2065    5772    3721
CTETRA     29880       1    1361    2083    4131    3608
CTETRA     29881       1    1722    4188    2111    3608
CTETRA     29882       1    4149    1985    3451    4189
CTETRA     29883       1    3609    2112    2196    1742
CTETRA     29884       1    1361    1362    4131    3293
CTETRA     29885       1    1361    3587    1842    2112
CTETRA     29886       1    3241    1895    3324    3325
CTETRA     29887       1    1510    1361    3587    1842
CTETRA     29888       1    4201    5955    2364    5880
CTETRA     29889       1    4201    5880    2364    5881
CTETRA     29890       1    5880    3887    4111    4201
CTETRA     29891       1    3324    3242    3241    2169
CTETRA     29892       1    4201    5879    3887    3889
CTETRA     29893       1    5879    5954    3889    4201
CTETRA     29894       1    4201    3940    5955    5954
CTETRA     29895       1    4201    2364    4112    5881
CTETRA     29896       1    3851    1986    1987    2364
CTETRA     29897       1    3722    4201    3889    3940
CTETRA     29898       1    6257    4045    6181    2600
CTETRA     29899       1    4058    4192    1855    2689
CTETRA     29900       1    1854    3614    1893    1852
CTETRA     29901       1    3530    3889    3722    3888
CTETRA     29902       1    1467    6107    2375    3224
CTETRA     29903       1    3851    2364    2652    4201
CTETRA     29904       1    3531    3940    3722    3889
CTETRA     29905       1    1257    1261    1262    1260
CTETRA     29906       1    1862    1007    1893    1886
CTETRA     29907       1    1287    2662    2661    1356
CTETRA     29908       1    2507    2509    2520    2508
CTETRA     29909       1    1837    2435    2436    2439
CTETRA     29910       1    1888    1887    1896    4147
CTETRA     29911       1    4143    4072    3709    4144
CTETRA     29912       1    2668    4205    4184    4180
CTETRA     29913       1    1863    3614    1886    1887
CTETRA     29914       1    1864    4170    2435    2286
CTETRA     29915       1    2439    2286    1864    2435
CTETRA     29916       1    2825    2827    6121    2072
CTETRA     29917       1    4083    6119    2825    6044
CTETRA     29918       1    2825    4102    6044    6045
CTETRA     29919       1    2242    2839    2834    2072
CTETRA     29920       1    4082    2882    3528    2825
CTETRA     29921       1    4083    4102    3478    2246
CTETRA     29922       1    4083    2244    6194    6193
CTETRA     29923       1    4083    2143    6118    2246
CTETRA     29924       1    2379    1167    1286    1933
CTETRA     29925       1    3557    3558    3598     335
CTETRA     29926       1    1638    2614    3027    3770
CTETRA     29927       1    3701     336    6110    6185
CTETRA     29928       1    3558    2716    3064    3598
CTETRA     29929       1    1288    3701    3558     336
CTETRA     29930       1    1499    2600    1500    3920
CTETRA     29931       1    1499    1500    3137    3920
CTETRA     29932       1    3920    3002    1006    6407
CTETRA     29933       1    2877    3957    2886    2889
CTETRA     29934       1     131    4145    4186    2837
CTETRA     29935       1    3955    2837    2382    3219
CTETRA     29936       1    2382    2909    3219    5131
CTETRA     29937       1    2833    2834    2836    2861
CTETRA     29938       1    2382    7031    2120     486
CTETRA     29939       1    2382    7031     486    3381
CTETRA     29940       1    4088    3876    3753     917
CTETRA     29941       1    3876    2987    3753    3710
CTETRA     29942       1    2528    1927    2507    2509
CTETRA     29943       1    3876    4088    3589     917
CTETRA     29944       1    4074    4037    3749    3420
CTETRA     29945       1    1968    1972    1966    4074
CTETRA     29946       1    2263    1696    1903    1750
CTETRA     29947       1    2352    2534    2521    2384
CTETRA     29948       1     153     214     215     231
CTETRA     29949       1    3425    3732    1583    3784
CTETRA     29950       1    3505    4148    4207    4197
CTETRA     29951       1    3535    4207    1826    3173
CTETRA     29952       1    3535    2733     799    4197
CTETRA     29953       1    3071    3535    1646    3327
CTETRA     29954       1    1812    1825     766     719
CTETRA     29955       1    1280    3696    3695      38
CTETRA     29956       1    3505    3504    4207    4148
CTETRA     29957       1    1825    6312    1826     726
CTETRA     29958       1    3480    2532    2836    3739
CTETRA     29959       1    4133    1119    3459    1757
CTETRA     29960       1    4133    1186    1757    4119
CTETRA     29961       1    1994    2298    3633    4137
CTETRA     29962       1    1600    2399    2310    3474
CTETRA     29963       1    1760    2431    4139    1186
CTETRA     29964       1    4125    1238    3312    1755
CTETRA     29965       1    1186    1760    2431    3971
CTETRA     29966       1    1756    3971    4182    1755
CTETRA     29967       1    3081    3157    3286    3321
CTETRA     29968       1    3152    3207    3234    4200
CTETRA     29969       1     984    1681    1697     985
CTETRA     29970       1    3370    2975    3629    4109
CTETRA     29971       1    4064    2922    4109    4065
CTETRA     29972       1    3081    1840    4066    3928
CTETRA     29973       1    1841    1840    3928    4066
CTETRA     29974       1    3156    1911    1843     313
CTETRA     29975       1    3500     710    1830    3470
CTETRA     29976       1    1492    2585    2301    3673
CTETRA     29977       1    1899    2461    1248    1495
CTETRA     29978       1    3917    2234    2996    2385
CTETRA     29979       1    2585    2929    2301    3673
CTETRA     29980       1    1492    2301    1731    3673
CTETRA     29981       1    3402     860     810    3294
CTETRA     29982       1    1781    3534     629     628
CTETRA     29983       1    3533    3503    1088    3510
CTETRA     29984       1    2232    4213    2235    4032
CTETRA     29985       1    2806    4088    2912    2805
CTETRA     29986       1    4074    2805    2912    3749
CTETRA     29987       1    1012     689     683     686
CTETRA     29988       1    4088    2912    2805    3736
CTETRA     29989       1    3753    4088    2068    3590
CTETRA     29990       1    2844    2833    3526    2847
CTETRA     29991       1    2002    3876    2807    3589
CTETRA     29992       1    3589    4088    2805    3736
CTETRA     29993       1    3903    3902    3134    3341
CTETRA     29994       1    3993    3519    3954    4196
CTETRA     29995       1    2576    3575    2577     934
CTETRA     29996       1    3601    3924    2577    2265
CTETRA     29997       1    4209    1957    2438    2437
CTETRA     29998       1    3163    4209    1959    3573
CTETRA     29999       1    3195    3589    4000    4214
CTETRA     30000       1    2579    4151    4023    3162
CTETRA     30001       1    2691    2693    4151    2579
CTETRA     30002       1    3589    2002    4214    2807
CTETRA     30003       1    3589    3686    4214    2002
CTETRA     30004       1    3589    2805    3748    3736
CTETRA     30005       1    3945    3984    3944    1918
CTETRA     30006       1    3589    4088    3736     917
CTETRA     30007       1    3589    3748    2805    4037
CTETRA     30008       1    1958    3229    2772    1956
CTETRA     30009       1    4000    4209    2437    1957
CTETRA     30010       1    3226    4037    3589    2805
CTETRA     30011       1    2996    4046     573    3678
CTETRA     30012       1    1051    1415    1004    1054
CTETRA     30013       1    2887    3355    4096    3353
CTETRA     30014       1    3031    4213    2362    1996
CTETRA     30015       1    3875    3610    2235    4163
CTETRA     30016       1    4163    4033     859    3875
CTETRA     30017       1    2589    4163    4213    4032
CTETRA     30018       1    4213    2362     812     811
CTETRA     30019       1    2237    2171    3438    3406
CTETRA     30020       1    3675    3160    2237    3276
CTETRA     30021       1    2150    3216    3160    2237
CTETRA     30022       1    3216    2237    2171    3438
CTETRA     30023       1    1553    1544    3586    4159
CTETRA     30024       1    2633    1559    1544    1554
CTETRA     30025       1    1559    2725    3930    1576
CTETRA     30026       1     455    1546    1570    1576
CTETRA     30027       1    1570    3587    2196    1554
CTETRA     30028       1    1741    1742    1361    1722
CTETRA     30029       1    2112    3609    3608    1722
CTETRA     30030       1    4168    3891    3625     413
CTETRA     30031       1    4168    4097    1810    1164
CTETRA     30032       1     413    2076     415     414
CTETRA     30033       1     104     415    2076    4067
CTETRA     30034       1    2935    3694     416    4067
CTETRA     30035       1     415    4168    3250    3625
CTETRA     30036       1    4178    4142    3235    3521
CTETRA     30037       1    4142    3494    2137    3275
CTETRA     30038       1    2668    4072    4156    3709
CTETRA     30039       1    4142    3521    3838    4141
CTETRA     30040       1    2669    4205    4190    3838
CTETRA     30041       1    3400     611    2101      94
CTETRA     30042       1    2100     495    1228      94
CTETRA     30043       1    3773    4030    2399    2402
CTETRA     30044       1     485    4030     610    3400
CTETRA     30045       1    4206     485    2095    2149
CTETRA     30046       1    1119    3466    1242     326
CTETRA     30047       1     298    1229     496     495
CTETRA     30048       1    3751    3750    2096     891
CTETRA     30049       1    2096    3750    2142     891
CTETRA     30050       1    2095    3773    2096     493
CTETRA     30051       1    3474    2095    3773    2096
CTETRA     30052       1    3568    2760    3475    4042
CTETRA     30053       1    1444     590    3264    3260
CTETRA     30054       1     437    2738    3381    3647
CTETRA     30055       1    3156     816    4200    1446
CTETRA     30056       1    3648    2816    2468    2469
CTETRA     30057       1    3647    2738    3381    2468
CTETRA     30058       1    2623    2561    2624    2507
CTETRA     30059       1     436     437    2910    3647
CTETRA     30060       1    2995    1311     521      36
CTETRA     30061       1    3684    3067    2307    3950
CTETRA     30062       1    1592    5616    1594    4105
CTETRA     30063       1    1610    1598    5614    5615
CTETRA     30064       1     898    1598    5613    5614
CTETRA     30065       1    5914    5915    3915    3906
CTETRA     30066       1    1592    4105    3459    1759
CTETRA     30067       1     870    2060     193    2164
CTETRA     30068       1    1058    1922    2846     606
CTETRA     30069       1    2028     771     355    1926
CTETRA     30070       1    2028     947     904    2090
CTETRA     30071       1    1922     356    1657    1923
CTETRA     30072       1    1926    1657    3141    2900
CTETRA     30073       1    3880    1453    3101    4158
CTETRA     30074       1    3880    2899    4158    3101
CTETRA     30075       1    2028     772    2090     932
CTETRA     30076       1     971    3245    2636    4208
CTETRA     30077       1     971    1475    2636    3393
CTETRA     30078       1     971    1712    6605    6680
CTETRA     30079       1     971    6678    6677    2616
CTETRA     30080       1     971    2617    3245    4208
CTETRA     30081       1     971    6678    2616    6679
CTETRA     30082       1    3592    2637    1726    2596
CTETRA     30083       1     971    4208    3049    2617
CTETRA     30084       1    2455    1940    4057    1945
CTETRA     30085       1    1936    1949    1948    1945
CTETRA     30086       1    4057    1945    2842    2455
CTETRA     30087       1    4122    2160    1282    4057
CTETRA     30088       1    1940    1282    1283    3059
CTETRA     30089       1    3786    1940    1283    1941
CTETRA     30090       1    1434    2230    1426    3155
CTETRA     30091       1     851     290     292     591
CTETRA     30092       1    1463    2933    3353    4177
CTETRA     30093       1     999    4204     977    2949
CTETRA     30094       1    3565     906    3567    2014
CTETRA     30095       1     929     940     962    1390
CTETRA     30096       1    3278    2359     945    3711
CTETRA     30097       1    3840    3841    3449    4059
CTETRA     30098       1     903     905     959    2359
CTETRA     30099       1     942    2060    1050     930
CTETRA     30100       1    2024     959    3278    2359
CTETRA     30101       1    2607     962    2043    3899
CTETRA     30102       1    2282    3509    3505    3503
CTETRA     30103       1    1548    4148    3536    1178
CTETRA     30104       1    3061    3105    2809    2948
CTETRA     30105       1    1089    1550    6381    1548
CTETRA     30106       1    6307    4148    6382    1548
CTETRA     30107       1    1548    1178    6231    6232
CTETRA     30108       1    6307    6232    4148    1548
CTETRA     30109       1    1752    3146    2658    1715
CTETRA     30110       1    4131    2962    1347    2967
CTETRA     30111       1    1347    1722    1361    4131
CTETRA     30112       1    1722    4131    3608    1361
CTETRA     30113       1    1742    1570    3587    2196
CTETRA     30114       1    2633    3587    1741    1742
CTETRA     30115       1    1774    1323    1773    3036
CTETRA     30116       1    1586    2398    5540    5465
CTETRA     30117       1    1596    1586     304    1598
CTETRA     30118       1    1693    2544    2546    1694
CTETRA     30119       1    5615    1596    6931    1610
CTETRA     30120       1    5540    5615    1598    1596
CTETRA     30121       1    1585    5466    1586    1596
CTETRA     30122       1    2193    3902    3341    2195
CTETRA     30123       1    2193    3030    2997    3341
CTETRA     30124       1    3158    3030    2193    3341
CTETRA     30125       1    2193    4194    2959    2890
CTETRA     30126       1    2605    3648    3960    2816
CTETRA     30127       1    3278    3345    1440     959
CTETRA     30128       1    3960    3648    2469    2816
CTETRA     30129       1    1638    1635    3027    2614
CTETRA     30130       1    1414    2872    3099    2670
CTETRA     30131       1    3278     959     945    2359
CTETRA     30132       1    3757    3706    2816    2467
CTETRA     30133       1    2469    2612    3960    2816
CTETRA     30134       1    2259    5534     524    5459
CTETRA     30135       1    2259     524    4706    5459
CTETRA     30136       1    2259    5457    4704    1310
CTETRA     30137       1    2259    4706    1310    4704
CTETRA     30138       1    5458    2259    5457    4704
CTETRA     30139       1    2516    1635    1638    2614
CTETRA     30140       1    4706    1310     406    2259
CTETRA     30141       1    2251    5532    2259    5457
CTETRA     30142       1    3415    2064    3970    2058
CTETRA     30143       1    5773    5774    4034    3340
CTETRA     30144       1    3340    5773    2058    2065
CTETRA     30145       1    3340    3218    2200    4034
CTETRA     30146       1    3106    3340    3218    2200
CTETRA     30147       1    3970    2064    3214    4113
CTETRA     30148       1    2654    1609    2647     898
CTETRA     30149       1    4064    1877    1679    3325
CTETRA     30150       1    3340    2065    1093    3218
CTETRA     30151       1    1821    3093    2493    3086
CTETRA     30152       1    4113    1185    2065    2431
CTETRA     30153       1    2879    3218    2200    2892
CTETRA     30154       1    3550    2435    3895    2286
CTETRA     30155       1    4051    3447    2356    3550
CTETRA     30156       1    1066    2287    2286    3550
CTETRA     30157       1    2287    3550    2285    2286
CTETRA     30158       1     498    1799     660    1885
CTETRA     30159       1    3550    4051    3447    3537
CTETRA     30160       1    1877    3975    4064    2974
CTETRA     30161       1    1221    1220    1444    1389
CTETRA     30162       1    2356    3441    3447    3169
CTETRA     30163       1    3550    2435    4050    3538
CTETRA     30164       1    2345    3045    2346    6813
CTETRA     30165       1    3045    2345    4070    3883
CTETRA     30166       1    2345    3884    6839    2347
CTETRA     30167       1    2345    6815    4231    6839
CTETRA     30168       1    6815    3884    6839    2345
CTETRA     30169       1    2345    6739    3883    6738
CTETRA     30170       1    2345    3883    6813    6738
CTETRA     30171       1    1087    1857     635    1552
CTETRA     30172       1    5335    1085    5336    1086
CTETRA     30173       1    2288    2744    1424    2442
CTETRA     30174       1    1059    1857    5357    1087
CTETRA     30175       1     657     658     641       7
CTETRA     30176       1     657     659     989     641
CTETRA     30177       1       5    3571    6712    3171
CTETRA     30178       1    3724    3571    3726    3725
CTETRA     30179       1       5     658     657       7
CTETRA     30180       1    2820    3680    1004    1054
CTETRA     30181       1    3698    3834     657    3835
CTETRA     30182       1     989    3698    3835    3697
CTETRA     30183       1    4084    2538    6949    4786
CTETRA     30184       1     642    6949    1506    6948
CTETRA     30185       1    3762    4084    1506    3307
CTETRA     30186       1    6115    2842    6114    2841
CTETRA     30187       1    2842    2840    2841    1932
CTETRA     30188       1    2993    2376    2840    6113
CTETRA     30189       1    2993    6036     528    6037
CTETRA     30190       1     528    6037    6113    2993
CTETRA     30191       1    2376     528    2993    1930
CTETRA     30192       1    2840    2376    2842    6114
CTETRA     30193       1    2841    2454    6040    6115
CTETRA     30194       1    3623    3794    5966    6041
CTETRA     30195       1    3758    3856    3269    3797
CTETRA     30196       1    1960    1656    1687    3210
CTETRA     30197       1    1654    1655    1656    1685
CTETRA     30198       1    1280    1291    3696    3956
CTETRA     30199       1    3055    3095    3373    3391
CTETRA     30200       1    2227    2610    2611    2939
CTETRA     30201       1    2586    3011    2588    3012
CTETRA     30202       1    3793    2611    2619    3953
CTETRA     30203       1    6301    1487    6300    2223
CTETRA     30204       1     554    3419    3856    3712
CTETRA     30205       1     188    3074     185     186
CTETRA     30206       1    3893    3074    3352     186
CTETRA     30207       1    1530    1349     187     186
CTETRA     30208       1    2025     185    2026    4659
CTETRA     30209       1    3554    4025    3529     953
CTETRA     30210       1    2025    3368    5440    5515
CTETRA     30211       1     187    1510    1509    2025
CTETRA     30212       1    3037    1088    1089    1550
CTETRA     30213       1    3037    3832    1548    3536
CTETRA     30214       1    3503    3510     667    1088
CTETRA     30215       1    3503    4148    3536    1089
CTETRA     30216       1    3503    3510    3504     667
CTETRA     30217       1    4046    1248    2723    3941
CTETRA     30218       1    1492    1494    4046    3673
CTETRA     30219       1    3503    3505    3536    4148
CTETRA     30220       1    2645    3461    2618    2654
CTETRA     30221       1     400    2402     299     401
CTETRA     30222       1    2544    3540    3542    3526
CTETRA     30223       1    3448    2699     855    2077
CTETRA     30224       1    2699     855    2077     296
CTETRA     30225       1     400     296     299    2402
CTETRA     30226       1    3542    2545    2550    3540
CTETRA     30227       1     296    1228     298     297
CTETRA     30228       1    1714    2630    1715    2631
CTETRA     30229       1    4173    5809    2621    5808
CTETRA     30230       1    3607    2793    3301    2178
CTETRA     30231       1    3605    2819    2905    5961
CTETRA     30232       1    2179    5886    2178    5811
CTETRA     30233       1    4173    3606    4189    3451
CTETRA     30234       1    2094    3469    2097    2096
CTETRA     30235       1    3400     611    4206    2101
CTETRA     30236       1    4206    2149    4078     406
CTETRA     30237       1    4030     755    2095     485
CTETRA     30238       1     938    3028    1923    6696
CTETRA     30239       1    1929    3028     938    3130
CTETRA     30240       1    3028    3130    5084    5081
CTETRA     30241       1    3028    5084     352    6773
CTETRA     30242       1    6698    3028    3141     352
CTETRA     30243       1    3028     938    6771    6696
CTETRA     30244       1    2338     938    6771    3130
CTETRA     30245       1    3559     644    3338    3560
CTETRA     30246       1    2838    3559     644    3338
CTETRA     30247       1    3336    3560    3559    3338
CTETRA     30248       1    3628     370    3560    2187
CTETRA     30249       1    3560     644    5525    2810
CTETRA     30250       1    3560    3559    2810    3561
CTETRA     30251       1    3542    3555    3437    3526
CTETRA     30252       1    3069    4086    3338    3560
CTETRA     30253       1    3073    3560     644    5525
CTETRA     30254       1    3112    5290    1397    6750
CTETRA     30255       1    3552    3437    3542    3555
CTETRA     30256       1    4215    1032    2188    1397
CTETRA     30257       1    3112    2188    5291    5300
CTETRA     30258       1    3112    1397    5290    5291
CTETRA     30259       1    3112    6749    6748    6900
CTETRA     30260       1    1037    3099    1061    1064
CTETRA     30261       1    3617    2666    3452    3614
CTETRA     30262       1    4100    3997    1432    3744
CTETRA     30263       1    1253    2333    1604    1626
CTETRA     30264       1    3777    3713    3003    3373
CTETRA     30265       1    3419    4121    2153    3271
CTETRA     30266       1    3269    3783    2413    4199
CTETRA     30267       1    2945    1197    3799    3919
CTETRA     30268       1    3385    3269    2971    3271
CTETRA     30269       1    3713    3712    3382    3967
CTETRA     30270       1    1822    1820    1821    1257
CTETRA     30271       1    3237    3949    4176    2473
CTETRA     30272       1    1804    3415    1805    3340
CTETRA     30273       1    3243    5775    2200    5850
CTETRA     30274       1    3340    1804    2058    2200
CTETRA     30275       1    3106    3085    3243    2152
CTETRA     30276       1    2934    1874    1876    1877
CTETRA     30277       1    1895    3236    3238    3325
CTETRA     30278       1    2730     817    1341    2732
CTETRA     30279       1    3834     657    3835    1445
CTETRA     30280       1       5    6713       8       7
CTETRA     30281       1    3554    4079    3542    2550
CTETRA     30282       1    2226    2079    4596    1686
CTETRA     30283       1       5    6712    3571       8
CTETRA     30284       1     658       7    4026    3149
CTETRA     30285       1    2226    2079     793    4596
CTETRA     30286       1    3935    1367    2254    2255
CTETRA     30287       1    3814    3935    3846    3929
CTETRA     30288       1    3935    3929    3792    3846
CTETRA     30289       1    3935    3839    1367    2255
CTETRA     30290       1    3815    1990    3814    3702
CTETRA     30291       1    1512    1966    1972    1514
CTETRA     30292       1    1620    2775     208    2777
CTETRA     30293       1    1965    4181    4106    3929
CTETRA     30294       1    2327    1387    1369    1384
CTETRA     30295       1    2092    1958    2920    1952
CTETRA     30296       1    2394    2568    2458    2457
CTETRA     30297       1    3988     966    1952    3180
CTETRA     30298       1    1951    4181    3988    1953
CTETRA     30299       1    2920    3656    1950    1958
CTETRA     30300       1    2092    3229    2772    1958
CTETRA     30301       1    1952    3229    1953    3180
CTETRA     30302       1    3295    2574    3104    6148
CTETRA     30303       1    3120    2599    3153    2293
CTETRA     30304       1    1661    2939    6372    6373
CTETRA     30305       1    3516    2599    2293    2587
CTETRA     30306       1     556    3636    3800    3776
CTETRA     30307       1    2005    2599    3516    2587
CTETRA     30308       1    2226    2684    2462    2394
CTETRA     30309       1    3566     995     975    3958
CTETRA     30310       1    3566    2941     975    3937
CTETRA     30311       1    2091    2894    2941    2895
CTETRA     30312       1    1653    1661    3127    3952
CTETRA     30313       1    4215    4007    3712    3776
CTETRA     30314       1    2078    2226    2458    2456
CTETRA     30315       1    1653    3776    3127    3358
CTETRA     30316       1    4215    4121    3100    3776
CTETRA     30317       1    1369    2254    2318    3702
CTETRA     30318       1    1253    1642    1619    1604
CTETRA     30319       1    4009    2918    3989    4008
CTETRA     30320       1    1252    1387    4118    4199
CTETRA     30321       1    2917    4009    2774    3868
CTETRA     30322       1    3901    3612    3882    2972
CTETRA     30323       1    2319    1369    2254    2318
CTETRA     30324       1    3815    3702    3882    1989
CTETRA     30325       1    3998    3811    3268    2129
CTETRA     30326       1    3901    3612    2972    3268
CTETRA     30327       1    3363    2973    4003    2975
CTETRA     30328       1    1686    2684     795    2226
CTETRA     30329       1    3939    4171    3401    3322
CTETRA     30330       1    4171    3365    3369    2201
CTETRA     30331       1    3816    2040    5564    5639
CTETRA     30332       1    3034    3317    2127    3322
CTETRA     30333       1    4070    2776      98    3883
CTETRA     30334       1    3607    2178    3301    3772
CTETRA     30335       1    3607    3301    4092    2644
CTETRA     30336       1    2644    3607    1517    4092
CTETRA     30337       1    5738     912    4092    3301
CTETRA     30338       1    3301    2178    5812    3772
CTETRA     30339       1    3569    2178    2905    5888
CTETRA     30340       1    5737     912    5738    3301
CTETRA     30341       1    3301    3772    5812    5737
CTETRA     30342       1    5888    5813    5889    3569
CTETRA     30343       1    3359    5636    3629    2045
CTETRA     30344       1    3318    2484    2503    5487
CTETRA     30345       1    3361    4040    3360    3359
CTETRA     30346       1     156     593    2995    3696
CTETRA     30347       1    3316    3317    5487    5488
CTETRA     30348       1    3318    3789    5487    2503
CTETRA     30349       1    2993    2819    6036    2905
CTETRA     30350       1    2676    3605    3450    2179
CTETRA     30351       1    1985    3454    4189    1469
CTETRA     30352       1    2993    2819     528    6036
CTETRA     30353       1    1930    2376    2840    2993
CTETRA     30354       1    6112     528    6037    6113
CTETRA     30355       1    3605    2819    5960    4189
CTETRA     30356       1    2819    2905    5961    6036
CTETRA     30357       1    3605    2819    5961    5960
CTETRA     30358       1    2819    4090    4189    1469
CTETRA     30359       1    2226     795    2462    2684
CTETRA     30360       1    3860    2315    1248    1247
CTETRA     30361       1    1368    3056     704    1369
CTETRA     30362       1    2226    2462     795     793
CTETRA     30363       1    2873    3919    2250    2809
CTETRA     30364       1    1689    1776    1841     583
CTETRA     30365       1    2458    2226    2796    2462
CTETRA     30366       1    3751    3752    3143     746
CTETRA     30367       1    1519    1522    1349    1523
CTETRA     30368       1    3528    3526    4061    2847
CTETRA     30369       1    4027    3870    5972    5973
CTETRA     30370       1    1172    5701    5777    5702
CTETRA     30371       1    3241    3242    1172    5703
CTETRA     30372       1    5779    3325    5780    3949
CTETRA     30373       1    4176    2473    5853    5852
CTETRA     30374       1    5853    3949    5929    2473
CTETRA     30375       1    5776    5701    5777    1172
CTETRA     30376       1      76    6801    2106    4265
CTETRA     30377       1      76    2106    2799    4261
CTETRA     30378       1    6802    4260    4265      76
CTETRA     30379       1    6829    6802    4260    4265
CTETRA     30380       1    4196    2106      76    3993
CTETRA     30381       1    2907    1950    1958    1952
CTETRA     30382       1    2917    1951    3656    2761
CTETRA     30383       1    2764    3657    4047    3135
CTETRA     30384       1    2764    4047    2763    3135
CTETRA     30385       1    1981    1979    2773    4151
CTETRA     30386       1    1979    3163    2764    2575
CTETRA     30387       1    2764    2575    1959    3671
CTETRA     30388       1    3790    3576    4209    3163
CTETRA     30389       1    3791    3980    2440    3685
CTETRA     30390       1    1457    2438    3980    3979
CTETRA     30391       1    3574    3163    3573    4209
CTETRA     30392       1    2520    2509    2582    2115
CTETRA     30393       1    1979    2764    2763    3135
CTETRA     30394       1    2773    4024    3577    4151
CTETRA     30395       1    2757    2758    4029    4028
CTETRA     30396       1    2773    4028    4047    2763
CTETRA     30397       1    2773    4047    3135    2763
CTETRA     30398       1    2773    4010    3577    4024
CTETRA     30399       1    1966    1953    4074    4106
CTETRA     30400       1    1913    1907    5985    5910
CTETRA     30401       1    1394    6137    3281    6138
CTETRA     30402       1    1394    1396    6137    6136
CTETRA     30403       1    1913    1407    5987    5986
CTETRA     30404       1    3481    1919    3408    3915
CTETRA     30405       1    1917    5988    1919    3915
CTETRA     30406       1     412    1767    6288    2778
CTETRA     30407       1     208    6514    1621    6439
CTETRA     30408       1     208    6512    3371    6513
CTETRA     30409       1    1642    1605    1604    3594
CTETRA     30410       1    6921    1605    6440    1633
CTETRA     30411       1    3071    3327    3328    1826
CTETRA     30412       1    1621    2777    6439    6364
CTETRA     30413       1    1251    1252    1626    3901
CTETRA     30414       1     629     628    1088    3039
CTETRA     30415       1    1641    1620    1621    2777
CTETRA     30416       1    1640    1619    1620    2774
CTETRA     30417       1     884    1364     758     893
CTETRA     30418       1    1915    2781    3549    3764
CTETRA     30419       1    2923    3699    3259    2481
CTETRA     30420       1    2155    3631    1404    4036
CTETRA     30421       1    4133     325    4119     326
CTETRA     30422       1    2005    2610    2599    6221
CTETRA     30423       1    3102    3094    2573    2569
CTETRA     30424       1    2223    2655    6226    1488
CTETRA     30425       1    3102    3105    2809    3060
CTETRA     30426       1     544    1961    3856    1656
CTETRA     30427       1    2282    3036    3536    3294
CTETRA     30428       1     573     574    1222     571
CTETRA     30429       1    3793    3953    1655    2611
CTETRA     30430       1    3247    1766     692    2751
CTETRA     30431       1    1766    1630    2751    1788
CTETRA     30432       1     684    2778    3281     412
CTETRA     30433       1    1777    1778    1767    2778
CTETRA     30434       1     690    3281     684    1777
CTETRA     30435       1     691     412    1396    2804
CTETRA     30436       1    2787    2777    2778    4015
CTETRA     30437       1    1406    1394    3281    1919
CTETRA     30438       1    1866    4051    3182    3169
CTETRA     30439       1    2081    3699    3527    2482
CTETRA     30440       1    1103     448    1024     773
CTETRA     30441       1    3542    3526    3626    3555
CTETRA     30442       1    2081    2080    2482    2032
CTETRA     30443       1    4042    3475    3568    3469
CTETRA     30444       1    2786    2774    1620    2775
CTETRA     30445       1    3621    3420    1953    4074
CTETRA     30446       1    2519    2193    3158    2522
CTETRA     30447       1    2069    2806    3280     168
CTETRA     30448       1    2418    3174     231    3600
CTETRA     30449       1    2942    2418    3253     170
CTETRA     30450       1    3775     170    2190    3253
CTETRA     30451       1    1812    3183    3178    4019
CTETRA     30452       1    3170    5760     404    5835
CTETRA     30453       1    1907    2891    5984    5909
CTETRA     30454       1    3568    3469    2096    2097
CTETRA     30455       1    3071    3327    1826    3535
CTETRA     30456       1    4081    3947    4093    3266
CTETRA     30457       1    3178    4019    3183    4018
CTETRA     30458       1    4076    5907    4093    4098
CTETRA     30459       1    1613    2094    3469    2305
CTETRA     30460       1    1968    3226    4037    2907
CTETRA     30461       1    3490    3499    4200     818
CTETRA     30462       1    1841    4066    1982    1840
CTETRA     30463       1    1807    1810    2268    1794
CTETRA     30464       1    2485    1805    3970    3340
CTETRA     30465       1    3499    2551     818    3490
CTETRA     30466       1     586    2168    4073    3490
CTETRA     30467       1     818    3499    4200    3593
CTETRA     30468       1     818    4200     819    3593
CTETRA     30469       1    3700    2293    2739    4132
CTETRA     30470       1    1401    1646    1520    1403
CTETRA     30471       1    3752    2126    4117    2124
CTETRA     30472       1    4117    2010    3522    2125
CTETRA     30473       1    4157    3522    2124    4117
CTETRA     30474       1    3622    4157    3522    2124
CTETRA     30475       1    4117    3522    2010    3810
CTETRA     30476       1    2769    3455    2955    3518
CTETRA     30477       1    4117    2010    2125    2726
CTETRA     30478       1    2404    3366    2707    3520
CTETRA     30479       1    2706    2679    3520    2707
CTETRA     30480       1    2706    2699    2681    2701
CTETRA     30481       1    2679    2707    2680    2595
CTETRA     30482       1    2707    2708    2595    3255
CTETRA     30483       1    3763    2707    2594    3708
CTETRA     30484       1    3992    3177    3397     318
CTETRA     30485       1    3992    4137    3809    3446
CTETRA     30486       1     303    3992     318     305
CTETRA     30487       1    3992    4137    3446    3444
CTETRA     30488       1    3633    3992    3809    3963
CTETRA     30489       1    3992    3177    3871    3397
CTETRA     30490       1    3178    1646    3535    2733
CTETRA     30491       1    1614    2759    3568    3469
CTETRA     30492       1     783    2142    3750    2141
CTETRA     30493       1     783    3750    4157    2141
CTETRA     30494       1    2760    3925    3620    3618
CTETRA     30495       1    2718    2009    2325    2500
CTETRA     30496       1    3474    3773    3751    2096
CTETRA     30497       1     783    2096    2142     785
CTETRA     30498       1    2028    1926     355    2029
CTETRA     30499       1    2941    3567    3566    2089
CTETRA     30500       1    2090    2181    2091    2089
CTETRA     30501       1    2014    2028     904    2090
CTETRA     30502       1    2091    3759     947     949
CTETRA     30503       1    2270    2091    2894    2952
CTETRA     30504       1    3566     975    2952    3958
CTETRA     30505       1    5425    3808    2564    5500
CTETRA     30506       1    2282    3536     810    3294
CTETRA     30507       1    3464    5500    3462    2103
CTETRA     30508       1    3494    4140    3346    3464
CTETRA     30509       1    5575    3462    4140    5500
CTETRA     30510       1     860    4197     810    3505
CTETRA     30511       1    3464    3494    2564    2475
CTETRA     30512       1    3407    3406    3414    2262
CTETRA     30513       1    2184    2262    5401    3288
CTETRA     30514       1    5475    2262    5476    3414
CTETRA     30515       1     799    4197     810     860
CTETRA     30516       1    3405    3204    2236    3288
CTETRA     30517       1    1809    1810    4115    3250
CTETRA     30518       1    4115    3288    2184    3203
CTETRA     30519       1    3867    4164    5791    5866
CTETRA     30520       1    2854    2182    4193    2041
CTETRA     30521       1    4072    2672    4144    2667
CTETRA     30522       1    2368    3631     801     846
CTETRA     30523       1    3939    4171    2201    3401
CTETRA     30524       1    4204    2949    1205    2947
CTETRA     30525       1    4204    1205    2949    1031
CTETRA     30526       1    4204    3742    2291    2289
CTETRA     30527       1    2348    4204     977    3742
CTETRA     30528       1    3807    3802    4204    1031
CTETRA     30529       1     999    4204    3742     977
CTETRA     30530       1    1264    1993    1266    1992
CTETRA     30531       1    4139    4119    1186    4054
CTETRA     30532       1    2648    2101    3400    4206
CTETRA     30533       1    2814    1186    4054    3798
CTETRA     30534       1    4139    1760    4119    5694
CTETRA     30535       1    5695    2431    5770    5694
CTETRA     30536       1    2431    5770    5694    4139
CTETRA     30537       1    5844    4139    5769    5845
CTETRA     30538       1    5845    4054    5844    4139
CTETRA     30539       1    3168     765    3167    3166
CTETRA     30540       1    3168    3192    6088    6089
CTETRA     30541       1    3166    3168    6089    6090
CTETRA     30542       1    3192    3443    6090    3168
CTETRA     30543       1    3443    3192    6014    3821
CTETRA     30544       1    6090    3192    6014    3443
CTETRA     30545       1    3178    3173    1825    4019
CTETRA     30546       1    1402    1871    1866    2696
CTETRA     30547       1    1097    4133    2814    1186
CTETRA     30548       1    1185    2065    2431    4139
CTETRA     30549       1    1185    4139    1186    3798
CTETRA     30550       1    3721    2065    1093    3798
CTETRA     30551       1    3905    5913    1917    3906
CTETRA     30552       1    1805    3340    3415    3970
CTETRA     30553       1    5697    2064    2065    4113
CTETRA     30554       1    3905    1917    5913    5912
CTETRA     30555       1    3970    2065    3340    2058
CTETRA     30556       1    3415    3970    3340    2058
CTETRA     30557       1    1576    2634    2721    1570
CTETRA     30558       1     455    1559    1570    1554
CTETRA     30559       1    1347    1362    1541    4131
CTETRA     30560       1    2633    1570    1554    3587
CTETRA     30561       1    2634    2725    1559    1576
CTETRA     30562       1    1711    2725    3719    3930
CTETRA     30563       1    2630    3146    2720    1742
CTETRA     30564       1    1709    1710    1711    2621
CTETRA     30565       1    2643    1360    1741    2633
CTETRA     30566       1    5586    1544    5661     455
CTETRA     30567       1    3867    5790    3818    3817
CTETRA     30568       1    1056    1345    2755    1802
CTETRA     30569       1    2851    2850    3818    2852
CTETRA     30570       1    5790    5791    3867    3818
CTETRA     30571       1    3818    4167    5716    5791
CTETRA     30572       1    2851    2040    3818    5641
CTETRA     30573       1    1266    2711    2681    2699
CTETRA     30574       1    2477    2713    1624    2681
CTETRA     30575       1    2702    4068    2731    1504
CTETRA     30576       1    2681    2702    1624    2703
CTETRA     30577       1    2681    2699    2711    2700
CTETRA     30578       1    2714    2540    2682    4668
CTETRA     30579       1     822    3631    2138     846
CTETRA     30580       1    3822     815    3823     809
CTETRA     30581       1     822    6009     798    6084
CTETRA     30582       1     798    1670    6008    5933
CTETRA     30583       1     798    1670    5933    3220
CTETRA     30584       1     815     800    3823     809
CTETRA     30585       1     798    6084     799     822
CTETRA     30586       1    3831    3832    1549    2948
CTETRA     30587       1    6007     800    6006    1670
CTETRA     30588       1     822    2138    6010    6085
CTETRA     30589       1     800    6007    6083     798
CTETRA     30590       1    3796    3740    4152    2209
CTETRA     30591       1    3944    3945    3986    3984
CTETRA     30592       1    4060    1443    3298    2113
CTETRA     30593       1    2539    1884    1882    1867
CTETRA     30594       1    2294    2694    3453    3441
CTETRA     30595       1    2330    4178    3523    3524
CTETRA     30596       1    4152    2137    3458    3858
CTETRA     30597       1    3938    4205    1878    4147
CTETRA     30598       1    1053    1064    6174    6173
CTETRA     30599       1    3744    1061    3745    6174
CTETRA     30600       1    4099    6099    1053    3744
CTETRA     30601       1    4099    3679    1053    6099
CTETRA     30602       1    6173    6172    1053    1064
CTETRA     30603       1    1064    1061    3745    3099
CTETRA     30604       1    3264    4153    3260    3847
CTETRA     30605       1    3945    4098    3986    3984
CTETRA     30606       1    2264    1780     251    2779
CTETRA     30607       1    1423    1909    2803    2802
CTETRA     30608       1    3945    2891    3984    1918
CTETRA     30609       1    1906    6135    2802    1395
CTETRA     30610       1    3273    3581    3767    3582
CTETRA     30611       1    2800    3577    2742    3579
CTETRA     30612       1    2800    2801    2803    3582
CTETRA     30613       1    2891    4076    3947    4098
CTETRA     30614       1    3481    3906    1914    1917
CTETRA     30615       1    2800    1421    1423    3579
CTETRA     30616       1    3041     247    3669     249
CTETRA     30617       1    5831    5906    2443    4081
CTETRA     30618       1    3398    3841    3840    3711
CTETRA     30619       1    3727     460    3725    3728
CTETRA     30620       1    2444    1419    2758    2757
CTETRA     30621       1    1023    1455    1021    1500
CTETRA     30622       1    3840     977    3866    3449
CTETRA     30623       1     998    3840    3399    3728
CTETRA     30624       1     995    3866     977    3743
CTETRA     30625       1     995    2359    3000    3878
CTETRA     30626       1     943     905    3878    2359
CTETRA     30627       1     876     976    2012     874
CTETRA     30628       1    2263    1750    1903    2603
CTETRA     30629       1    2742    3546    2743    3577
CTETRA     30630       1    1419    2762    2444    2758
CTETRA     30631       1    6252    6327    3172    1497
CTETRA     30632       1    1423    2802    3580    2804
CTETRA     30633       1    1453    3115    1497    3172
CTETRA     30634       1    3881    3119     968     932
CTETRA     30635       1    6326    6401    4158    3115
CTETRA     30636       1    2373    2372    3225    3990
CTETRA     30637       1    2336     645    2486    2490
CTETRA     30638       1    1381    1636    2516    1158
CTETRA     30639       1    2349    3667    3196    3197
CTETRA     30640       1    3154    3066    3994     478
CTETRA     30641       1    2349    2366    3491    2353
CTETRA     30642       1    3234    3660    3827    3659
CTETRA     30643       1    2788    3299    3132    3260
CTETRA     30644       1    2678    2788    3299    4094
CTETRA     30645       1    1444    3299     590    3260
CTETRA     30646       1     640    3674     638     301
CTETRA     30647       1    2135    4190    2137    4178
CTETRA     30648       1    3299    1028    2208    2053
CTETRA     30649       1    3264    3298     592     590
CTETRA     30650       1    4152    3457    4094    3735
CTETRA     30651       1    3617    3614    1863    1002
CTETRA     30652       1    2539    2668    1889    1888
CTETRA     30653       1    2209    2221    3740    2208
CTETRA     30654       1    2209    2208    1388    2221
CTETRA     30655       1    4152    3457    3735    3228
CTETRA     30656       1    1119     326    3459    3466
CTETRA     30657       1    1117    3459    1757    1759
CTETRA     30658       1    1594    4105    5691     326
CTETRA     30659       1    3476    4125    4126    2298
CTETRA     30660       1    2653    3465     880    1992
CTETRA     30661       1     704    1251    3814    3702
CTETRA     30662       1    3702    3901    2983    4199
CTETRA     30663       1    1990     704    2254    3935
CTETRA     30664       1     556    2945    3799    3637
CTETRA     30665       1     704    2254    3935    1367
CTETRA     30666       1    1250     702     704     705
CTETRA     30667       1    3800    3637    3799    3394
CTETRA     30668       1    3394    3245    3395    3257
CTETRA     30669       1    3394    3009    3776    4215
CTETRA     30670       1    2366    3491    3962    3634
CTETRA     30671       1    2366    3962    2582    2367
CTETRA     30672       1    4017    6570    3200    3634
CTETRA     30673       1    1939    2334    2336    1941
CTETRA     30674       1    1560    2219    3082    3667
CTETRA     30675       1    2367    3136    2115    2552
CTETRA     30676       1    2582    2367    2115    2552
CTETRA     30677       1    1979    2575    2764    3135
CTETRA     30678       1    1979    4151    3162    4024
CTETRA     30679       1    1979    3162    3163    2575
CTETRA     30680       1    1979    4024    2773    4151
CTETRA     30681       1    1979    2773    3135    2763
CTETRA     30682       1    1980    2763    1979    2764
CTETRA     30683       1    3949    2123    5929    2473
CTETRA     30684       1    3949    5929    2123    5930
CTETRA     30685       1    3241    4176    3237    3949
CTETRA     30686       1    3236    3551    3325    3670
CTETRA     30687       1    3949    3670    5855    5930
CTETRA     30688       1     689     692    1748     690
CTETRA     30689       1    3241    4176    5778    1172
CTETRA     30690       1    4176    3949    5853    2473
CTETRA     30691       1    5855    5780    3670    3949
CTETRA     30692       1    2856    2860    4144    4104
CTETRA     30693       1    1009    5794    4144    2606
CTETRA     30694       1    4178    2858    4138    2135
CTETRA     30695       1    1009    5719    4144    5794
CTETRA     30696       1    2436    2667    2672    4072
CTETRA     30697       1    2672    4144    2860    4167
CTETRA     30698       1     709    2917     708    1513
CTETRA     30699       1    2854    4193    4171    3322
CTETRA     30700       1    2182    4187    4171    4193
CTETRA     30701       1    1567    2409    3207    3047
CTETRA     30702       1     585    1341    1340     584
CTETRA     30703       1    3939    2201    4171    3369
CTETRA     30704       1    4171    4187    2198    4193
CTETRA     30705       1    3365    4171    4187    2930
CTETRA     30706       1    2409    2332    2410    3043
CTETRA     30707       1    3269    4199    2413    3270
CTETRA     30708       1    4118    3269    3270    4199
CTETRA     30709       1    3595    3692    3271    3596
CTETRA     30710       1    3269    3783    3372    2413
CTETRA     30711       1    3692    3596    3916    3271
CTETRA     30712       1    3690    3630    3691    3692
CTETRA     30713       1    3690    6668    3692    6593
CTETRA     30714       1    3692    6668    3630    3052
CTETRA     30715       1    3865    3594    3690    3597
CTETRA     30716       1    3269    3385    3782    3797
CTETRA     30717       1    3269    3385    3797    3271
CTETRA     30718       1    3595    1387    3783    4118
CTETRA     30719       1    3779    3269    3385    3782
CTETRA     30720       1     708    2444    3868    2786
CTETRA     30721       1    3270    3692    3052    3271
CTETRA     30722       1    3270    2131    3269    2130
CTETRA     30723       1    3595    3597    3692    3596
CTETRA     30724       1    3269    3372    3783    3782
CTETRA     30725       1    3458    3858    3228    4152
CTETRA     30726       1    3927    3458    3858    3228
CTETRA     30727       1    1714    2627    2727    2626
CTETRA     30728       1    4072    1837    1864    2435
CTETRA     30729       1    2539    1886    1888    1889
CTETRA     30730       1    1881    4152    2208    2209
CTETRA     30731       1    2678    4094    4152    3457
CTETRA     30732       1    2747     897    2750    2752
CTETRA     30733       1    3299    4152    2053    2208
CTETRA     30734       1    1311    1894    3411     521
CTETRA     30735       1    3064     331    3557    1578
CTETRA     30736       1     331     338    6485    2284
CTETRA     30737       1    4210    3557    1578    3835
CTETRA     30738       1    1698    3841     663    3727
CTETRA     30739       1    3411    3956    2995    3696
CTETRA     30740       1    2284    6409    6485     331
CTETRA     30741       1    6484    2284    6409    6485
CTETRA     30742       1    2645    2646    2791    2647
CTETRA     30743       1    2654    3460    2415    3466
CTETRA     30744       1    1913    5985    1907    5986
CTETRA     30745       1     873    1344    5687    5612
CTETRA     30746       1    2648    1344    3390    3170
CTETRA     30747       1     418     231    3486     230
CTETRA     30748       1     191    2642    2640    3648
CTETRA     30749       1    2118    2120    3434    4145
CTETRA     30750       1    4073    3497    2885    2166
CTETRA     30751       1     608     300     301    2730
CTETRA     30752       1    5840    5765    6929    3460
CTETRA     30753       1    5764    1593    5765    3460
CTETRA     30754       1    2654    1594    3460    3466
CTETRA     30755       1    1594    6929     326    5766
CTETRA     30756       1    1594     326    5691    5766
CTETRA     30757       1    1594     326    3459    4105
CTETRA     30758       1    2900    2899    6474     933
CTETRA     30759       1     772     932     933     969
CTETRA     30760       1    2931    3099    2899    3101
CTETRA     30761       1     772    2900    1926    3001
CTETRA     30762       1    1712    1713    6530    6531
CTETRA     30763       1    1712     971    3592    2637
CTETRA     30764       1    1712    2913    1713    6531
CTETRA     30765       1    2637     971    6679    6680
CTETRA     30766       1    3067    3754    3066     477
CTETRA     30767       1    2371    3739    2372    2552
CTETRA     30768       1    3279     190    3960    3345
CTETRA     30769       1    3774    3495    3770    3054
CTETRA     30770       1    2230    3067    3668    4124
CTETRA     30771       1    1491    1490    1745    2541
CTETRA     30772       1     593     213     215     230
CTETRA     30773       1    1891     162    2615    2570
CTETRA     30774       1    4848    4836     162    2570
CTETRA     30775       1    1653    1656    3419    1654
CTETRA     30776       1    1491    4838     162    1490
CTETRA     30777       1    2541    4824    1491    4825
CTETRA     30778       1    1491    2687    2615    4834
CTETRA     30779       1    4009    3371    4008      98
CTETRA     30780       1    2776      99    3371      98
CTETRA     30781       1    4009    3868    2918    3869
CTETRA     30782       1    3281     691     412    1396
CTETRA     30783       1    3868    4035    3331    3330
CTETRA     30784       1    2346    4070    3872    2280
CTETRA     30785       1    2787    4015    3496    4035
CTETRA     30786       1    1767    1777    3281    1769
CTETRA     30787       1    2693    4151    2579    3162
CTETRA     30788       1    2139    4036    3863    2604
CTETRA     30789       1    2604    2139    5861    3863
CTETRA     30790       1    3182    2785    2604    3820
CTETRA     30791       1    2258    2851    2850    3818
CTETRA     30792       1    3863    2139    5861    2566
CTETRA     30793       1    1656    1687    3210    1684
CTETRA     30794       1    1841    3152    3928    1840
CTETRA     30795       1    2560    2332    2409    4187
CTETRA     30796       1    4107    3738    2566    2173
CTETRA     30797       1    3079    3365    1567    3207
CTETRA     30798       1    1400    3631    2368    3179
CTETRA     30799       1    4060    4541    2052    2113
CTETRA     30800       1    3146    1742    2110    2720
CTETRA     30801       1    1742    1570    2215    2720
CTETRA     30802       1    1722    3609    3608    2110
CTETRA     30803       1    1742    1361    2112    3587
CTETRA     30804       1    2862    2807    4214    3341
CTETRA     30805       1     934    3158    3519    2114
CTETRA     30806       1     169     170     171    2423
CTETRA     30807       1    2520    4172    2114    3962
CTETRA     30808       1    2521    2365    2366    2582
CTETRA     30809       1    2508    2117    2513    3231
CTETRA     30810       1    2114    2116    2115    3962
CTETRA     30811       1    1466    4045    3224    1484
CTETRA     30812       1    3531    3940    3851    3722
CTETRA     30813       1    1468    4090    1467    1469
CTETRA     30814       1    4149    6032    2375    4090
CTETRA     30815       1    1465    1466    1484    4045
CTETRA     30816       1    2136    4190    1882    3493
CTETRA     30817       1    2597    1470    1467    3701
CTETRA     30818       1     523    2259    5534     524
CTETRA     30819       1     523    2101    2225     172
CTETRA     30820       1    4206    2259     406    4078
CTETRA     30821       1     523     172    5536    1344
CTETRA     30822       1     523    5536     172    5535
CTETRA     30823       1    4115    4168    1810    3206
CTETRA     30824       1    1680    3822    3551    3236
CTETRA     30825       1    2239    2240    5016    6779
CTETRA     30826       1    2239    4914    6780    5016
CTETRA     30827       1    2239    2289    2302    6705
CTETRA     30828       1    2302    6780    6704    6779
CTETRA     30829       1    2239    2240    5017    5016
CTETRA     30830       1    2381    2361    2363    2425
CTETRA     30831       1    2381    2363     377    2380
CTETRA     30832       1    2381    2903    6763    6762
CTETRA     30833       1    2381    2903    6764    6763
CTETRA     30834       1    2381      75    2361     538
CTETRA     30835       1    2422    5341     636    5342
CTETRA     30836       1    2526     636    5344    5343
CTETRA     30837       1    5340    1729    5328    5341
CTETRA     30838       1    1729    5328    5341    2422
CTETRA     30839       1    2422    1728    5328    5316
CTETRA     30840       1    2526    5330    2422    5342
CTETRA     30841       1    3024    2468    3648    3646
CTETRA     30842       1    2816     191    3647     437
CTETRA     30843       1    3703     640    3289     817
CTETRA     30844       1    3703    3705    3289    2554
CTETRA     30845       1     593    4186     230    3485
CTETRA     30846       1    2908     436    2910    3647
CTETRA     30847       1    3289     301    2156    3705
CTETRA     30848       1    3410    3957    2789    3955
CTETRA     30849       1     230    3696     156    4044
CTETRA     30850       1     593    4186    3696     230
CTETRA     30851       1     642    6947    5313    6948
CTETRA     30852       1    2260     642     639    2213
CTETRA     30853       1     642    4084    6949    2213
CTETRA     30854       1    3674     794    2683     795
CTETRA     30855       1    2683    4084     642    2213
CTETRA     30856       1    2156    2407     638    2261
CTETRA     30857       1     131     283    7040    2121
CTETRA     30858       1     131     128     129    2120
CTETRA     30859       1     131    2120    7031     128
CTETRA     30860       1    2312     130     129     283
CTETRA     30861       1    2121    7038     283    7039
CTETRA     30862       1     283    4799     342    6935
CTETRA     30863       1     283     342     284    6935
CTETRA     30864       1    1663    1656    1668    1687
CTETRA     30865       1     555    2572    1197    2945
CTETRA     30866       1    2321    1368    2256    1369
CTETRA     30867       1     554    3856    3758    3797
CTETRA     30868       1    3595    3269    3758    3856
CTETRA     30869       1     554     544    3419    1653
CTETRA     30870       1     546    1961    1960    1385
CTETRA     30871       1    1369    1367    2254     704
CTETRA     30872       1    1791    2657    1335    2656
CTETRA     30873       1    1368    3098    3055    2322
CTETRA     30874       1    1991    1279    1293    3833
CTETRA     30875       1    3712    4007    4215    3382
CTETRA     30876       1    3063    2176    1445    6563
CTETRA     30877       1     657    3835    1445     989
CTETRA     30878       1    6413    6488    6412     341
CTETRA     30879       1    3063    3697    6413     989
CTETRA     30880       1    3063    3835    2176     338
CTETRA     30881       1     341    6488    6412    6487
CTETRA     30882       1    2232    4213    1996    2233
CTETRA     30883       1    2282    3503    3505    3536
CTETRA     30884       1    1924    1785     982    1770
CTETRA     30885       1    1997    1783    2301    3514
CTETRA     30886       1    1752    3146    1730    2658
CTETRA     30887       1    3146    2658    2109    1730
CTETRA     30888       1    3607    2644    1711    3772
CTETRA     30889       1    2634    1559    1570    1576
CTETRA     30890       1    1360    3586    1544    1509
CTETRA     30891       1    3146    1742    1722    2110
CTETRA     30892       1    1730    2109    3146    2110
CTETRA     30893       1    2157    2684    2158     474
CTETRA     30894       1    2158    7067     474    6953
CTETRA     30895       1    2157    2158    2684     795
CTETRA     30896       1    2157    2396    2394     474
CTETRA     30897       1    2555     301    2156    3289
CTETRA     30898       1    7067    2683    2158    2260
CTETRA     30899       1    1569    2854    2183    3361
CTETRA     30900       1    2854    3315    2041    3322
CTETRA     30901       1    3896    3361    3360    2852
CTETRA     30902       1    2183    3939    2854    4171
CTETRA     30903       1    3363    3826    3939    3369
CTETRA     30904       1    3318    5637    3360    5562
CTETRA     30905       1    3817    3896    4040    3360
CTETRA     30906       1    3816    3360    2852    3817
CTETRA     30907       1    3239    3341    2997    4196
CTETRA     30908       1    2479    3097    1223    3092
CTETRA     30909       1    3519    2997    4196    3029
CTETRA     30910       1    2463    1301    3636    2656
CTETRA     30911       1    4196      76    2106    2799
CTETRA     30912       1    3239    3791    2999    3341
CTETRA     30913       1    1527    2882    2884    1928
CTETRA     30914       1    3636    3637    2463     550
CTETRA     30915       1    1285    1295    1289    2709
CTETRA     30916       1    3558    3064    3557    3598
CTETRA     30917       1    2661    3557    4210    3835
CTETRA     30918       1    2896    3734    3668    3022
CTETRA     30919       1    4122     340    3697    2160
CTETRA     30920       1    1040    6171     700    1038
CTETRA     30921       1    1040    6096     700    6171
CTETRA     30922       1    1067    1078    1080    1037
CTETRA     30923       1    6247    1040    6171    6172
CTETRA     30924       1    1039    1064    1040    6247
CTETRA     30925       1    3636    2656    1301    3967
CTETRA     30926       1    6172    1053    1064    1040
CTETRA     30927       1    2864    6096    1040    6097
CTETRA     30928       1    2864    1040    1053    6097
CTETRA     30929       1    1416     768     769    1067
CTETRA     30930       1    1037    1040    1080    1038
CTETRA     30931       1    1037    1040    1064    1053
CTETRA     30932       1    2974    4109    4064    3737
CTETRA     30933       1    3370    4109    2919    4065
CTETRA     30934       1    3080    3152    1840    3928
CTETRA     30935       1    4066    2074    4097    3948
CTETRA     30936       1    4003    3363    3359    3361
CTETRA     30937       1    3207    1110    2409    1111
CTETRA     30938       1    3404    4115    1809    3405
CTETRA     30939       1    1238    3214    1213    1214
CTETRA     30940       1    3251    3324    2934    3429
CTETRA     30941       1    2868    2866     817     818
CTETRA     30942       1    3793    1655    2227    2611
CTETRA     30943       1    3949    3241    3325    3237
CTETRA     30944       1    3199    1796    4069    3675
CTETRA     30945       1    1091    3970    2065    3340
CTETRA     30946       1    3800    3636    3394    3776
CTETRA     30947       1    4071    2205    4069    2011
CTETRA     30948       1    3545    3544    2995    3956
CTETRA     30949       1    2118    3434    2639    2908
CTETRA     30950       1    1067    1079    1078    1068
CTETRA     30951       1    2282    1323    3036    3294
CTETRA     30952       1     769    1080    2295    3914
CTETRA     30953       1    1509    4159    1517    3781
CTETRA     30954       1    1509    4159    2644    1517
CTETRA     30955       1    1360    1509    2644    1517
CTETRA     30956       1    1360    1741    2633    3587
CTETRA     30957       1    1348    1519    1508    1148
CTETRA     30958       1    1510    1509    2025    3586
CTETRA     30959       1    4006    3394    3636    4007
CTETRA     30960       1    2783    4203    4050    4164
CTETRA     30961       1    2851    1573    2850    2852
CTETRA     30962       1    2976    4040    4107    3863
CTETRA     30963       1    2258    4050    2672    4164
CTETRA     30964       1    3817    3896    3360    2852
CTETRA     30965       1     331    1016    3557    4210
CTETRA     30966       1    4216    3571    3572    3726
CTETRA     30967       1    2857    4138    2135    2331
CTETRA     30968       1    1035    3726    3728    3725
CTETRA     30969       1     990     999    1001    1031
CTETRA     30970       1    1001    1029    2949    3726
CTETRA     30971       1    3728     666    3727     460
CTETRA     30972       1     998    2949    1001     999
CTETRA     30973       1     976     975     995     977
CTETRA     30974       1    3807    2289     975    3742
CTETRA     30975       1     975    3958     995    3743
CTETRA     30976       1     975    2941    2952    2241
CTETRA     30977       1     975    3937    2302    2289
CTETRA     30978       1    2766    2769    2955    3518
CTETRA     30979       1    2981    1816    2718    1817
CTETRA     30980       1    2964    2163    4606    3795
CTETRA     30981       1    1540    2964    1542    2163
CTETRA     30982       1    1522    4155    2021     186
CTETRA     30983       1    2023    4120    3972    3308
CTETRA     30984       1    2775    4009    3330    3868
CTETRA     30985       1     620     278    1418     320
CTETRA     30986       1    3371      98    6587    4008
CTETRA     30987       1    2776    3989    4009    2916
CTETRA     30988       1    2776    4080    3989    2916
CTETRA     30989       1    3869    3371    6586    4008
CTETRA     30990       1    3371    3330    6511    6512
CTETRA     30991       1      98    6587    6663    3371
CTETRA     30992       1    6511    3371    3869    3330
CTETRA     30993       1    2797    4080    2281    3872
CTETRA     30994       1    3988    3908    2280    4080
CTETRA     30995       1    1990    3815    2986    3874
CTETRA     30996       1    3815    2797    3874    3882
CTETRA     30997       1    3815    2797    4080    2281
CTETRA     30998       1    2797    2344    2346    2347
CTETRA     30999       1    4070    3989    4080    2280
CTETRA     31000       1    1619    3873    1642    1621
CTETRA     31001       1    3901    1251    3815    2797
CTETRA     31002       1    1619    2776     100      99
CTETRA     31003       1     312     314    2732    3282
CTETRA     31004       1    2045    4109    3629    4003
CTETRA     31005       1    4003    4107    2045    4109
CTETRA     31006       1    2183    3939    4171    3369
CTETRA     31007       1    3862    3300    2785    4040
CTETRA     31008       1    1567    2560    2409    4187
CTETRA     31009       1    2754    2977    3738    4107
CTETRA     31010       1     529    2376     528     335
CTETRA     31011       1     528    6036    2819    6111
CTETRA     31012       1     336    6111    2819    6110
CTETRA     31013       1    1835    1963      80    2439
CTETRA     31014       1    1890    1106     568    1160
CTETRA     31015       1    1288     336     528    2819
CTETRA     31016       1     528    2376    6112    6187
CTETRA     31017       1     528    6187     335    2376
CTETRA     31018       1    3039     628    1088    1713
CTETRA     31019       1    3035    2948    2873    2389
CTETRA     31020       1    1459    3300    1572    1574
CTETRA     31021       1     986    1047    1046    1946
CTETRA     31022       1    2250    2948    4012    2389
CTETRA     31023       1    4012    2389    6304    2250
CTETRA     31024       1    3061    3060    2809    3105
CTETRA     31025       1    3941    1248    3859    4046
CTETRA     31026       1    3805    1047    3248    3482
CTETRA     31027       1     801     799    1646     846
CTETRA     31028       1    2883    2882    3528    4082
CTETRA     31029       1    2718    2969    2978    2007
CTETRA     31030       1    2956    3421    3423    3351
CTETRA     31031       1    3870    1583    2030    3732
CTETRA     31032       1    2883    4082    3528    3870
CTETRA     31033       1    1678    3238    1682    1895
CTETRA     31034       1    4176    1172    5777    5778
CTETRA     31035       1    2169    3325    5705    5704
CTETRA     31036       1    3241    3242    5703    5704
CTETRA     31037       1    5777    4176    3085    1172
CTETRA     31038       1    3078    3243    1806    3106
CTETRA     31039       1    3325    3237    3236    3949
CTETRA     31040       1    3085    2473    5852    5927
CTETRA     31041       1    3086    2151    3085    2152
CTETRA     31042       1    3085    2151    2473    5927
CTETRA     31043       1    3980    4196    2799    3979
CTETRA     31044       1    4000    2958    3980    3685
CTETRA     31045       1    3980    4209    2438    2958
CTETRA     31046       1    4196    3954    3979    3980
CTETRA     31047       1    3993    4196    3954    3979
CTETRA     31048       1    3790    3791    4000    4209
CTETRA     31049       1      76    1457    2799    3979
CTETRA     31050       1    1457    2799    3980    2958
CTETRA     31051       1    3511    1591    3031    1589
CTETRA     31052       1    3178    3535    1826    3173
CTETRA     31053       1    4022    4016    3511    3513
CTETRA     31054       1    3502    3509    3510    3503
CTETRA     31055       1    2274     126    3651     921
CTETRA     31056       1    4163     811    3900     813
CTETRA     31057       1    4000    4037    3077    3748
CTETRA     31058       1    3791    4214    3686    2999
CTETRA     31059       1    4000    3980    2958    4209
CTETRA     31060       1    1848    3590     168    4088
CTETRA     31061       1    3432    3929    3392    3283
CTETRA     31062       1    2785    2783    3182    1865
CTETRA     31063       1    3126    3600     170    2418
CTETRA     31064       1    1514    4106    3432    3929
CTETRA     31065       1    2419    2418    3669    2417
CTETRA     31066       1     171    2419    2418    3775
CTETRA     31067       1    3125    3600    3854    3283
CTETRA     31068       1    2802    6210    1396    6135
CTETRA     31069       1    1906    6133    2802    6134
CTETRA     31070       1    2802    6133    3984    2801
CTETRA     31071       1    1906    2803    2802    3984
CTETRA     31072       1    2802    1396    6210    2804
CTETRA     31073       1     600     489    1401     499
CTETRA     31074       1    1395    1396    6136    6135
CTETRA     31075       1    2355    4051    2356    3550
CTETRA     31076       1    2804    1423    4029    3580
CTETRA     31077       1    1423    1909    1421    2803
CTETRA     31078       1    1394    3281    6137    1396
CTETRA     31079       1    6139    6138    1919    1769
CTETRA     31080       1    1769    6138    1919    3281
CTETRA     31081       1    3281    1396    6212    6137
CTETRA     31082       1    1641    2778    1778    1777
CTETRA     31083       1    2787    4035    2444    2775
CTETRA     31084       1    2787    3496    4015     412
CTETRA     31085       1    2586    2587    3516    4135
CTETRA     31086       1    2442    2757    3579    3577
CTETRA     31087       1    2418     417    3253     215
CTETRA     31088       1    1619     208      99    3873
CTETRA     31089       1    2499    3929    3125    3935
CTETRA     31090       1    4009    2774    2775    3371
CTETRA     31091       1    3496    2787    4035    2444
CTETRA     31092       1    2775    3868    3330    4035
CTETRA     31093       1    2775    2777    2787    4015
CTETRA     31094       1    4070    2776    3883    2344
CTETRA     31095       1    3102    2223    2655    2279
CTETRA     31096       1    1960    1663    3011    1687
CTETRA     31097       1    1336    3095    1478    1477
CTETRA     31098       1    3092    1478    3098    3019
CTETRA     31099       1    1095    1301     980     688
CTETRA     31100       1    3097    3695    1280    3833
CTETRA     31101       1    1300    3967    1336    1302
CTETRA     31102       1    1336    3967    1477    1302
CTETRA     31103       1    1245    3860    1248    1247
CTETRA     31104       1    3126    2423    2418     170
CTETRA     31105       1    3714    3600    3125     231
CTETRA     31106       1    2549    1691    2781    2547
CTETRA     31107       1    2954    3283    3126    3125
CTETRA     31108       1    2444    2775    4035    3868
CTETRA     31109       1    3125    3929    2954    3283
CTETRA     31110       1    3125    3813    1367    3839
CTETRA     31111       1    3125    3839    3935    3792
CTETRA     31112       1    1848    2808    3589    2807
CTETRA     31113       1    2436    2606    2672    4050
CTETRA     31114       1    4075    3546    3578    4020
CTETRA     31115       1    6354    6355    4023    4075
CTETRA     31116       1    6279    4075    6354    6278
CTETRA     31117       1    4075    3584    3547    2265
CTETRA     31118       1    4075    3765    6204    6280
CTETRA     31119       1    4075    6355    4020    6280
CTETRA     31120       1    3947    3943    4093    3266
CTETRA     31121       1    3944    3945    1918    2781
CTETRA     31122       1    2780    1615    2602    2830
CTETRA     31123       1     404    2303    5833    5758
CTETRA     31124       1    3945    2891    3947    4098
CTETRA     31125       1    1917    3906    5913    3915
CTETRA     31126       1    1912     405    1913    1914
CTETRA     31127       1    1407    1917    5987    6062
CTETRA     31128       1    2527    2625    2530    2624
CTETRA     31129       1    2415    3427    3466    3460
CTETRA     31130       1    4030    2399    2402    1230
CTETRA     31131       1     649    5758     404    5759
CTETRA     31132       1    3493    3494    2137    4142
CTETRA     31133       1    3347    1878    1892    4175
CTETRA     31134       1    1835    2436    2435    2439
CTETRA     31135       1    1368    2256    1367    2323
CTETRA     31136       1    4175    3462    5650    3347
CTETRA     31137       1    3554    2087    4025     953
CTETRA     31138       1    2263    2602    2603    1903
CTETRA     31139       1    1902    3943    3942    3946
CTETRA     31140       1    4202    3943    2443    3942
CTETRA     31141       1    2956    2766    3349    3553
CTETRA     31142       1    4025    3529     953    3618
CTETRA     31143       1    2603    3529    3554    4025
CTETRA     31144       1    1902    1904    3747    3943
CTETRA     31145       1    2550    4089    6051    3626
CTETRA     31146       1    3987    3769    2547    3764
CTETRA     31147       1     816     819     818    4200
CTETRA     31148       1    1803    3415    1804    3252
CTETRA     31149       1    3410    1313    2511    2642
CTETRA     31150       1    2515    2642    2640     191
CTETRA     31151       1    1368    2256    1369    1367
CTETRA     31152       1    1368    3096    2322    3654
CTETRA     31153       1    2934    3843    3429    2169
CTETRA     31154       1    3439    1794    3435    1796
CTETRA     31155       1    1846    1270    1682    1411
CTETRA     31156       1    3447    2356    3550    3441
CTETRA     31157       1    4202    3267    2085    2443
CTETRA     31158       1    4025    2085    3618    2086
CTETRA     31159       1    4025    4202    3618    2085
CTETRA     31160       1    3267    3475    4202    4042
CTETRA     31161       1    4042    3475    4202    3618
CTETRA     31162       1    4202    3747    3942    2087
CTETRA     31163       1    2602    4202    3747    3943
CTETRA     31164       1    3336    3337    2009    3972
CTETRA     31165       1    3336    2009    3265    3810
CTETRA     31166       1    3456    3336    2009    3972
CTETRA     31167       1    3337    3338    3335    4086
CTETRA     31168       1    1384    3758    3783    3055
CTETRA     31169       1    3336    3559    3339    3338
CTETRA     31170       1      57    2191    1529    3720
CTETRA     31171       1    1519      57    1529    3720
CTETRA     31172       1    1368    3055    1369    2321
CTETRA     31173       1    5666    2177    5591      57
CTETRA     31174       1    5592    1523    3388    3893
CTETRA     31175       1    2192      57    3720    2191
CTETRA     31176       1    1826    6311    2228    6312
CTETRA     31177       1     726     719    1825    6312
CTETRA     31178       1    3535    3505    1826    4207
CTETRA     31179       1     725     718    1826     726
CTETRA     31180       1    3506     725    3513    3472
CTETRA     31181       1    3535    3505    4207    4197
CTETRA     31182       1    3502    3505    3504    4207
CTETRA     31183       1    3056    3055    1368    3098
CTETRA     31184       1    3178    2733    4018     846
CTETRA     31185       1    3327    2282     860    1645
CTETRA     31186       1    1125    2584     512    2932
CTETRA     31187       1     739     740    6317     856
CTETRA     31188       1    3502    3510    4116    3504
CTETRA     31189       1    3932    3665    2104    2543
CTETRA     31190       1    3666    3665    3463    4154
CTETRA     31191       1    2104    5579    3665    3933
CTETRA     31192       1    3665    4130    5654    4162
CTETRA     31193       1    3682     887     889    3683
CTETRA     31194       1    4135    3682    3683    2587
CTETRA     31195       1    2794    2795     889    4135
CTETRA     31196       1    3295    1200    2574    2610
CTETRA     31197       1    5842    5767    5843     325
CTETRA     31198       1     325    5767    4119     326
CTETRA     31199       1     405    4076    2902    2891
CTETRA     31200       1    3936    2926    3408    3976
CTETRA     31201       1    4133     325    1242    2812
CTETRA     31202       1    2477     256    3963    2711
CTETRA     31203       1     325    5841     326    4043
CTETRA     31204       1    2553    2812    2893    2927
CTETRA     31205       1    4119    5843     325    4054
CTETRA     31206       1    5841     325    2553    2927
CTETRA     31207       1    5916    2927    5841    5917
CTETRA     31208       1     956    1803    1216    1805
CTETRA     31209       1    1804    3252    3413    1171
CTETRA     31210       1    1810    1409    1413    2268
CTETRA     31211       1    1795    1796    1797    2011
CTETRA     31212       1    3404    4115    2184    3625
CTETRA     31213       1    3675    3894    3199    3436
CTETRA     31214       1    3562    3933    2746    3665
CTETRA     31215       1    2745    5730    4130    3879
CTETRA     31216       1    1368    2322    3096    3098
CTETRA     31217       1    3562    3564    4049    3665
CTETRA     31218       1    3665    3933    5654    4130
CTETRA     31219       1    2745    3879    5731    5730
CTETRA     31220       1    2746    3933    3932    3665
CTETRA     31221       1    2001    3663    2037    2753
CTETRA     31222       1    3933    5579    3665    5654
CTETRA     31223       1    2620    3879    5731    2622
CTETRA     31224       1    2155    3738    3631    4036
CTETRA     31225       1    3660    4200    3827    4185
CTETRA     31226       1    3182    2783    3821    4051
CTETRA     31227       1    3182    2783    3820    3821
CTETRA     31228       1    2785    4036    2604    3863
CTETRA     31229       1    3056    1368    1307    3096
CTETRA     31230       1    1404    3191    3182    2604
CTETRA     31231       1    1404    4036    3631    2139
CTETRA     31232       1    4126    3650    2298    4125
CTETRA     31233       1    3675    3161    4069    2202
CTETRA     31234       1    2782    3945    2891    3947
CTETRA     31235       1    2477    3539    2711    3963
CTETRA     31236       1    2477    3539    2015    2017
CTETRA     31237       1    3633    2298    3650    4137
CTETRA     31238       1    3539    4677    2017    4670
CTETRA     31239       1    2151    3094    2556    2573
CTETRA     31240       1    2556    3094    2569    2573
CTETRA     31241       1    1907     405    2902    2891
CTETRA     31242       1    6079    2556    6003    2006
CTETRA     31243       1    1395    6136    1394    6061
CTETRA     31244       1    3078    2473    3087    3237
CTETRA     31245       1    2151    2473    5927    6002
CTETRA     31246       1    1664    3061    1666    3060
CTETRA     31247       1    2826    2827    2072    2834
CTETRA     31248       1    2533    2529    3624    2514
CTETRA     31249       1    2242    3478    1948    2244
CTETRA     31250       1    2242    2072    4083    2244
CTETRA     31251       1    1144    1146    1157    1147
CTETRA     31252       1    1155    1153    3479    3855
CTETRA     31253       1    3479    3794    3785    3855
CTETRA     31254       1    2242    1948    3059    2244
CTETRA     31255       1    2821    2449    2448    2839
CTETRA     31256       1     800    6082    2571    6157
CTETRA     31257       1     800    2571    3823     809
CTETRA     31258       1     800    6157    2571    1178
CTETRA     31259       1     800    6006    3823    6081
CTETRA     31260       1    4144    2667    4143    4072
CTETRA     31261       1    2174     473    1851     176
CTETRA     31262       1    4143    4183    4144    3709
CTETRA     31263       1    1881    2137    4152    3858
CTETRA     31264       1    1453    3172    4158    3115
CTETRA     31265       1    2600    2716    6259     330
CTETRA     31266       1    1499    2337     330    3920
CTETRA     31267       1    2337    6333    6409     330
CTETRA     31268       1    6408    2337    6333    6409
CTETRA     31269       1     330     331    6409    2337
CTETRA     31270       1     330    2600    6258    6259
CTETRA     31271       1     330    2716    6259    6334
CTETRA     31272       1    1499    2600    1466    1500
CTETRA     31273       1    3617    1052    1004    3680
CTETRA     31274       1    1467    3701    1470    1469
CTETRA     31275       1    1467    6183    2600    2716
CTETRA     31276       1     330    3920    6333    2600
CTETRA     31277       1    2600    3920    6257    4045
CTETRA     31278       1    1499    2600    3920     330
CTETRA     31279       1     905    3878     995    3958
CTETRA     31280       1     905     995    3878    2359
CTETRA     31281       1    3566    2091     949    2952
CTETRA     31282       1    3566     995     976     975
CTETRA     31283       1     905    2359     943     931
CTETRA     31284       1    3834    2176       5    1445
CTETRA     31285       1    3771    3067    3754    3066
CTETRA     31286       1    2609    3754    3067    3950
CTETRA     31287       1    2609    3771    3067    3754
CTETRA     31288       1    3067    3668     476     478
CTETRA     31289       1    3084    4925    3710    3994
CTETRA     31290       1    1035    1001    3724    3723
CTETRA     31291       1    1638    3774    3770    3027
CTETRA     31292       1     599     600    1056    2155
CTETRA     31293       1    3067    4124    2307     476
CTETRA     31294       1    2609    3770    3619    3053
CTETRA     31295       1    4165    1887    3614    1002
CTETRA     31296       1    1906    5983    6059    5984
CTETRA     31297       1    1864    2286    4169    4170
CTETRA     31298       1    3616    4169    1864    2286
CTETRA     31299       1    1864    4072    4156    1889
CTETRA     31300       1    2858    4179    2859    4103
CTETRA     31301       1    1395    1906    6135    6060
CTETRA     31302       1    2859    4193    2478    3048
CTETRA     31303       1    1800    3322    2478    2859
CTETRA     31304       1    2039    2859    3322    1800
CTETRA     31305       1    2854    2852    3816    3360
CTETRA     31306       1    3633    3992    4137    3809
CTETRA     31307       1    2558    2731    2702    4068
CTETRA     31308       1    2477    3963    3633    3539
CTETRA     31309       1    3247    1769    3248    3482
CTETRA     31310       1    2711    3539    2712    3963
CTETRA     31311       1    2806    2912    4088    2068
CTETRA     31312       1    3280     170     168    3432
CTETRA     31313       1    3280    2806    3392    3432
CTETRA     31314       1     168     171     170    3775
CTETRA     31315       1    2806    1514    4106    3432
CTETRA     31316       1     168    3432    2806    3280
CTETRA     31317       1    4074    2911    2806    4106
CTETRA     31318       1    2798    2344    1626    2776
CTETRA     31319       1    2806    3392    3432    4106
CTETRA     31320       1    2535    1426    3154    2384
CTETRA     31321       1    2519    2522    2384    3902
CTETRA     31322       1    3154    3492    3467    2452
CTETRA     31323       1    3154    3902    2452    3473
CTETRA     31324       1    1301    4208    3091     688
CTETRA     31325       1    1301    3967    1302     713
CTETRA     31326       1    3592     628    3591    1713
CTETRA     31327       1    2896    3022     158    3734
CTETRA     31328       1    3395    3245    3394    2636
CTETRA     31329       1    4007    3394    3776    4215
CTETRA     31330       1    3967    3713    3712    2656
CTETRA     31331       1    2046    1794    3852    1797
CTETRA     31332       1    1794    3852    1797    1796
CTETRA     31333       1    1796    4069    3161    2011
CTETRA     31334       1    1796    3161    3675    3852
CTETRA     31335       1    1796    3852    3675    3439
CTETRA     31336       1    1807    1794    1795    1796
CTETRA     31337       1    1216    1215    1805    3415
CTETRA     31338       1    3404    1809    3430    3405
CTETRA     31339       1    4174    3521    4143    3838
CTETRA     31340       1    3662     176    3705    3661
CTETRA     31341       1    2851    4167    2672    2860
CTETRA     31342       1    4072    4144    2606    1009
CTETRA     31343       1    1837    2668    4072    1889
CTETRA     31344       1    4143    4104    4144    4183
CTETRA     31345       1    4143    3836    3521    4104
CTETRA     31346       1    3637    3394    3801    3799
CTETRA     31347       1    2945    3801    3919    3799
CTETRA     31348       1    3911    1631    1630    2749
CTETRA     31349       1    3801    3799     712    1476
CTETRA     31350       1    3801    3394    3395     712
CTETRA     31351       1    3393    2636    3395    1475
CTETRA     31352       1    3270    3595    3271    3269
CTETRA     31353       1    3270    4199    2413    3829
CTETRA     31354       1    4199    3691    3998    3829
CTETRA     31355       1       5    4195    3724    4166
CTETRA     31356       1    4166    3724       5    3834
CTETRA     31357       1    1673    1732    1734    2516
CTETRA     31358       1    4216    2176    4211    3171
CTETRA     31359       1    3724    4216    3571       5
CTETRA     31360       1    4216    4211    1029    3171
CTETRA     31361       1    2274    2846    2272    1139
CTETRA     31362       1     127     125    3501     126
CTETRA     31363       1     218    3426    1058    6546
CTETRA     31364       1     202    2846    1929    2845
CTETRA     31365       1    2845     127     126     909
CTETRA     31366       1     339    6262     335    3598
CTETRA     31367       1     339    3598    6261    6262
CTETRA     31368       1    3064     339    3557    3598
CTETRA     31369       1     340     339    6262     335
CTETRA     31370       1    6261     339    3064    3598
CTETRA     31371       1     177     301    3289    3705
CTETRA     31372       1    6337     341    6336     339
CTETRA     31373       1     340    3487    3697     339
CTETRA     31374       1    3461     898    5688    5689
CTETRA     31375       1    5838    3461    5839    3906
CTETRA     31376       1    3461     898    5689    1593
CTETRA     31377       1    2791    1914    3905    3170
CTETRA     31378       1    5914    5839    5915    3906
CTETRA     31379       1    3460    3466    6929    4043
CTETRA     31380       1    3460    1594    6929    3466
CTETRA     31381       1    3236    3949    3670    3325
CTETRA     31382       1    3236    3949    2123    3670
CTETRA     31383       1    1877    4064    2169    3325
CTETRA     31384       1    1822    3086    3078    3106
CTETRA     31385       1    1235    3296    3721    2739
CTETRA     31386       1    1585    1584    3996     304
CTETRA     31387       1    3446    3992    3444     305
CTETRA     31388       1    3992    3444     305     304
CTETRA     31389       1     304    3992    3444    4137
CTETRA     31390       1    1585    1586     304    1596
CTETRA     31391       1    1592    1593    1611    1594
CTETRA     31392       1     303     306     305     910
CTETRA     31393       1    3465     304    4137    3992
CTETRA     31394       1    1994    3992    3465    4137
CTETRA     31395       1     858     856    6317    6318
CTETRA     31396       1    3645    6394    3638    6469
CTETRA     31397       1    1657    1926     606     217
CTETRA     31398       1     217    1926    2900    1657
CTETRA     31399       1    2913    2596    3592     628
CTETRA     31400       1    3592    1726    3274    2596
CTETRA     31401       1    3591    1713    2636     971
CTETRA     31402       1    3591    3931     595     597
CTETRA     31403       1    1712    3592     971    1713
CTETRA     31404       1    3591    3931     971    4208
CTETRA     31405       1    1939    2374    2243    3059
CTETRA     31406       1    1939    1947    1940    1948
CTETRA     31407       1    1939    1941    2374    1283
CTETRA     31408       1    2449    2374    3225    2243
CTETRA     31409       1    2449    3225    2372    3739
CTETRA     31410       1    2448    3739    2449    2372
CTETRA     31411       1    1434    3667    2896    3668
CTETRA     31412       1    1526    1938    1937    1239
CTETRA     31413       1    2875    1322    3402    3294
CTETRA     31414       1    3919    2250    1488    1476
CTETRA     31415       1    2809    2250    3105    1488
CTETRA     31416       1    3919    3799    3801    1476
CTETRA     31417       1    3919    3801    4053    1476
CTETRA     31418       1     688    2463    1095    1301
CTETRA     31419       1     556    3800    3637    3799
CTETRA     31420       1    2744    2442    3577    2773
CTETRA     31421       1    2762    3868    2758    2763
CTETRA     31422       1    4181    4002    4031    3599
CTETRA     31423       1    4031    4002    3929    3846
CTETRA     31424       1    1436    1927    2582    2583
CTETRA     31425       1    2506    2624    3624    3583
CTETRA     31426       1    2798    2776    2774    2916
CTETRA     31427       1    3079    3365    3207    3175
CTETRA     31428       1    3207    3080    2061    3827
CTETRA     31429       1    2976    3361    4040    3300
CTETRA     31430       1    3365    4187    3047    2930
CTETRA     31431       1    3662    2557    4185    3660
CTETRA     31432       1    2155     814    3631    3738
CTETRA     31433       1    1260    3120    3700     889
CTETRA     31434       1    3896    3361    3300    4040
CTETRA     31435       1    1567    4187    2409    3047
CTETRA     31436       1    2358    2031     874     903
CTETRA     31437       1     177    2732     816     817
CTETRA     31438       1    3080    4200    3827    3207
CTETRA     31439       1    1079    1033    3914    4062
CTETRA     31440       1    1079    1080     700    4062
CTETRA     31441       1    3616    2865    2864    1052
CTETRA     31442       1    2295    2287    3453    1033
CTETRA     31443       1    1066    1068    2286    2287
CTETRA     31444       1    3441    2287    3550    2285
CTETRA     31445       1     699    2287    2285     701
CTETRA     31446       1    6020     701    6095    6019
CTETRA     31447       1    2546    2545    1750    3437
CTETRA     31448       1    3895     701    2285    2286
CTETRA     31449       1    1080    1040     700    1038
CTETRA     31450       1     593     230    3696     156
CTETRA     31451       1     129    2120    2536    2119
CTETRA     31452       1     129    2121    7038     283
CTETRA     31453       1    2121     129    7038    2446
CTETRA     31454       1    2446    7036    2059    2119
CTETRA     31455       1    2119    7036    7035     129
CTETRA     31456       1    4099    3997    4100    3744
CTETRA     31457       1    1075    1023    1500    1455
CTETRA     31458       1    3116    3115    6328    1497
CTETRA     31459       1    4099    6100    3744    6101
CTETRA     31460       1    1433    1703    1705    1484
CTETRA     31461       1    2994    1985    1469    3454
CTETRA     31462       1    2189    3728     998    2949
CTETRA     31463       1    3565    3807    3639    3937
CTETRA     31464       1     932    3880    3881    3119
CTETRA     31465       1    1465    1500    1466    4045
CTETRA     31466       1    2184    3407    5476    2262
CTETRA     31467       1    3416    3404    5552    5477
CTETRA     31468       1    2184    3288    3407    2262
CTETRA     31469       1    3404    2184    5477    3416
CTETRA     31470       1    2184    3625    5478    3416
CTETRA     31471       1    3404    4115    3407    2184
CTETRA     31472       1    3404    3407    3414    5476
CTETRA     31473       1    2184    5403    3625    3203
CTETRA     31474       1    4358    3203    2184    4350
CTETRA     31475       1    3127    6450     712    3952
CTETRA     31476       1    6525    3127    6450     712
CTETRA     31477       1    3800    3952    3127     712
CTETRA     31478       1    3800    3394    3799     712
CTETRA     31479       1    1653    3800    3127    3776
CTETRA     31480       1    3952    3799    1476     712
CTETRA     31481       1    3952    2224    6374    6375
CTETRA     31482       1    1661    2224    2939    6374
CTETRA     31483       1    6371    1655    2611    6372
CTETRA     31484       1    3793    1668    1655    1687
CTETRA     31485       1    1768    1788    6215    1767
CTETRA     31486       1    1768    6139    1769    1767
CTETRA     31487       1    3248    3408    1769    3976
CTETRA     31488       1    1768    1788    6924    6215
CTETRA     31489       1    3408    1768    6139    1769
CTETRA     31490       1    1768    6924    1788    6925
CTETRA     31491       1    1768    6925    2926    6926
CTETRA     31492       1    1442    2560    1568    2857
CTETRA     31493       1    2937    2134    2396    3018
CTETRA     31494       1    3299    4094    3132    3222
CTETRA     31495       1    1881    2209    2330    3796
CTETRA     31496       1    4654    2056    3051    5437
CTETRA     31497       1    1553    3051    5437    5438
CTETRA     31498       1    3051    2056    4639     911
CTETRA     31499       1    4639    2056    3051    4654
CTETRA     31500       1    3051    2025    5439    5514
CTETRA     31501       1    2526    2422    1729     636
CTETRA     31502       1    2526     636    1729    1085
CTETRA     31503       1    2526    5342    2422     636
CTETRA     31504       1    2526    5344     636    1085
CTETRA     31505       1    5319    2563    5332    2526
CTETRA     31506       1    1012     689     686    1748
CTETRA     31507       1    6910    2526    5330    2460
CTETRA     31508       1     213     249     215    3669
CTETRA     31509       1    5307    2563    5319    2460
CTETRA     31510       1    2156    2158     638    2407
CTETRA     31511       1    2260    2683    2158     638
CTETRA     31512       1    3307    4084    1506     607
CTETRA     31513       1    3674     638    2683     642
CTETRA     31514       1     638    6945    2555    6944
CTETRA     31515       1     638    6944    2555    2261
CTETRA     31516       1    2282     810    3536    3505
CTETRA     31517       1    1280    3695    3696    3833
CTETRA     31518       1    2296    3914    2295    3453
CTETRA     31519       1    4136    3441    2694    3169
CTETRA     31520       1    3545    3955    3957    3678
CTETRA     31521       1    2789    3544    2995    3545
CTETRA     31522       1    2908    3957    2909     436
CTETRA     31523       1    2908    3955    2909    3957
CTETRA     31524       1    2695    2696    4136    2694
CTETRA     31525       1    2877    3957    2511     436
CTETRA     31526       1    3793    1655    1668    2227
CTETRA     31527       1    3011    3013    6294    2588
CTETRA     31528       1    3211    4039    3005    3013
CTETRA     31529       1    3011    3013    3005    6294
CTETRA     31530       1    2586    2005    2220    3516
CTETRA     31531       1    2586    2005    2588    2619
CTETRA     31532       1    3064    2716    6260    3598
CTETRA     31533       1    3064     330    2598     331
CTETRA     31534       1    3064     339    6336    1578
CTETRA     31535       1    6410    6335    1578     331
CTETRA     31536       1    1975    2274    2277    2272
CTETRA     31537       1    6336    6261     339    3064
CTETRA     31538       1    3064    6261    3598    6260
CTETRA     31539       1     631    3534    3508    4016
CTETRA     31540       1     726     725    2228    1826
CTETRA     31541       1    3513    4116    3040     725
CTETRA     31542       1    4022    3513    3510    4116
CTETRA     31543       1     750    3500     751    1798
CTETRA     31544       1    2585    3673    4046    2154
CTETRA     31545       1    3502    3509    3327    3328
CTETRA     31546       1    3502    1826    4207    2228
CTETRA     31547       1    6415    2159     989    2160
CTETRA     31548       1    2159    2160    6415    6416
CTETRA     31549       1    3786    2160    2159    6416
CTETRA     31550       1    1434    2057    3667    2349
CTETRA     31551       1    3786    2489    1941    2486
CTETRA     31552       1    2159     641    6490     989
CTETRA     31553       1    2159     989     659     641
CTETRA     31554       1    2159     641    6565    6490
CTETRA     31555       1    1709    1711    3719    2621
CTETRA     31556       1    2634    1570    2720    2721
CTETRA     31557       1    1708    1710    3607    1711
CTETRA     31558       1     126    1049     195    1929
CTETRA     31559       1     213     230     153     215
CTETRA     31560       1     609    2849     608    2731
CTETRA     31561       1    2132    1244    2133    1243
CTETRA     31562       1    2559    3812    3520    3763
CTETRA     31563       1    1240    3427    3936    1242
CTETRA     31564       1    2774    2916    2776    4009
CTETRA     31565       1    3804     703    1368    1307
CTETRA     31566       1    3322    3317    2127    2484
CTETRA     31567       1    1929    2845     126    1049
CTETRA     31568       1    3316    3034    3315    3317
CTETRA     31569       1    3939    3826    3315    2503
CTETRA     31570       1     724     750    1976    1161
CTETRA     31571       1    3817    5638    5639    3360
CTETRA     31572       1    3318    2503    3826    3789
CTETRA     31573       1    5637    3359    5636    3318
CTETRA     31574       1    3318    3315    2503    2484
CTETRA     31575       1    3318    3316    3317    5487
CTETRA     31576       1    3030    3519    3158    2114
CTETRA     31577       1    3519    3983    3030    3029
CTETRA     31578       1    3519    4196    2997    3341
CTETRA     31579       1    3519    4196    3993    3029
CTETRA     31580       1    2274    1139    3501    2845
CTETRA     31581       1    2890    3029    2997    3030
CTETRA     31582       1    2272    2846     374    1139
CTETRA     31583       1    1058    6620     935     202
CTETRA     31584       1    1939    2377    2334    1941
CTETRA     31585       1    3840    3841    3728    3449
CTETRA     31586       1    2608    3053    2614    3770
CTETRA     31587       1     202    2846     374     935
CTETRA     31588       1    3755    3841    3711    1607
CTETRA     31589       1    3024    2613    2869    2469
CTETRA     31590       1    3565    1021    3145    3002
CTETRA     31591       1     998     995    3840     977
CTETRA     31592       1    3841    3711    1607    3380
CTETRA     31593       1    2614    3770    3053    3027
CTETRA     31594       1    3840    3380    3841    4059
CTETRA     31595       1     521     213     249     593
CTETRA     31596       1    1052    1053    1054    3680
CTETRA     31597       1    2865    1002    5947    5948
CTETRA     31598       1    6023    2864    2865    3679
CTETRA     31599       1    3617    3679    1052    3680
CTETRA     31600       1    2864    1053    6098    6097
CTETRA     31601       1    3679    1053    6099    6098
CTETRA     31602       1    4099    6024    3679    6099
CTETRA     31603       1    2864    3679    6023    6098
CTETRA     31604       1    2864    1052    2865    3679
CTETRA     31605       1    1678    2492    1680    3238
CTETRA     31606       1    3081    3921    4066    3688
CTETRA     31607       1    3081    2098    3928    3921
CTETRA     31608       1    3319    3209    3157    3369
CTETRA     31609       1    3319    3687    3374    3369
CTETRA     31610       1    1572    2784    1573    3300
CTETRA     31611       1    3319    3694    3687    3890
CTETRA     31612       1    3016    4488    2051    5422
CTETRA     31613       1    3016    4473    3909    4474
CTETRA     31614       1    3016    2051    4486    4474
CTETRA     31615       1    3016    4486    2051    4488
CTETRA     31616       1    3868    2774    2775    4009
CTETRA     31617       1    2747    2749    2748    2751
CTETRA     31618       1    1620    2775    2777    2787
CTETRA     31619       1    2775    3330    6436    4035
CTETRA     31620       1    2444    3868    4035    2758
CTETRA     31621       1    2750    3981    3912    3683
CTETRA     31622       1    2775    3330    6437    6436
CTETRA     31623       1    2798    1626    2344    2797
CTETRA     31624       1    1626     100    2344    3613
CTETRA     31625       1     187    1541    1362    3230
CTETRA     31626       1    1510    1361    1842    3293
CTETRA     31627       1    1362    1510    3293    1361
CTETRA     31628       1    1360    3587    1510    1361
CTETRA     31629       1     187    1510    2025    2026
CTETRA     31630       1    3729    3725    3728    3727
CTETRA     31631       1    3728    2949    2189    3726
CTETRA     31632       1    1030    1031    3760    2283
CTETRA     31633       1    1031     991     990     993
CTETRA     31634       1    1058     935    2846     202
CTETRA     31635       1    3723    3834    3835    4211
CTETRA     31636       1    3723    3724    3834    4211
CTETRA     31637       1    3641     977    2189    3449
CTETRA     31638       1     993    1031    2283    3802
CTETRA     31639       1     999    4204    3807    3742
CTETRA     31640       1    4204    3807    2289    3802
CTETRA     31641       1    1005    1006    6482    6557
CTETRA     31642       1    3119    1969    3880    3115
CTETRA     31643       1    3807    3937    2289    3639
CTETRA     31644       1    3807     975    2289    3937
CTETRA     31645       1    3488    3723    3724    3834
CTETRA     31646       1    2163    2964    3140    1540
CTETRA     31647       1    1540    2964    1541    1542
CTETRA     31648       1     186    1523    1530    1349
CTETRA     31649       1    1362    1541    1508    1347
CTETRA     31650       1    2054    1700    1699    2487
CTETRA     31651       1    2964    1541    1542    3795
CTETRA     31652       1    3138    3290    3140    2978
CTETRA     31653       1    3761    3336    4114    3810
CTETRA     31654       1    2207    3455    3892    2187
CTETRA     31655       1    3892    3306    3730    5671
CTETRA     31656       1    1583    3653    4110    3343
CTETRA     31657       1    3729    3724    3725    3379
CTETRA     31658       1    2984    1534    4110    3484
CTETRA     31659       1    3044      98    6736    3045
CTETRA     31660       1    1427    3068    2990    1426
CTETRA     31661       1    3908     928    2991    3044
CTETRA     31662       1    3908    3989    2280    4080
CTETRA     31663       1    2920    2092    1952    2982
CTETRA     31664       1    1614    2309    2759    3469
CTETRA     31665       1    2324    3810    4114    4157
CTETRA     31666       1    3620    3761    4085    2760
CTETRA     31667       1    3628    3484    3456    3455
CTETRA     31668       1    2231    3729    4123    3379
CTETRA     31669       1    2717    2770    3620    3761
CTETRA     31670       1    2760    4042    4212    3925
CTETRA     31671       1    3620     371    3618    2086
CTETRA     31672       1    3365    4171    2930    3227
CTETRA     31673       1    3363    3939    3826    3315
CTETRA     31674       1    1567    3365    2183    4171
CTETRA     31675       1    3365    3157    3431    3898
CTETRA     31676       1    3365    3047    3207    3175
CTETRA     31677       1    3079    3806    3157    3898
CTETRA     31678       1    3079    3365    3898    3157
CTETRA     31679       1    1756    4113    3970    3214
CTETRA     31680       1    1185    2431    1756    1186
CTETRA     31681       1    1756    4182    3202    3214
CTETRA     31682       1    1756    4182    3971    3202
CTETRA     31683       1    6103    6028    1704    1431
CTETRA     31684       1    1356    3723    2661    1016
CTETRA     31685       1    1465    1433    1454    1484
CTETRA     31686       1    1481    3997    4099    3744
CTETRA     31687       1    4100    5951    2689    6026
CTETRA     31688       1    6028    4100    1431    6103
CTETRA     31689       1    5878    4058    3888    3889
CTETRA     31690       1    4099    6101    4100    6026
CTETRA     31691       1    4014    2948    2250    3105
CTETRA     31692       1    2524     815    3822     809
CTETRA     31693       1    4014    2569    6152    6153
CTETRA     31694       1    4014    4012    6229    6228
CTETRA     31695       1    4014    6152    2569    6227
CTETRA     31696       1    4014    6227    3105    1488
CTETRA     31697       1    1001    1031     999    2949
CTETRA     31698       1    3437    2884    1134    2844
CTETRA     31699       1    1192    2965    1277    2966
CTETRA     31700       1    2984    3425    1583    3780
CTETRA     31701       1    1936    3479    1945    3478
CTETRA     31702       1    3785    3794     791    3855
CTETRA     31703       1    3479    3478    2246    2143
CTETRA     31704       1    4118    3691    4199    3270
CTETRA     31705       1    2561    2576     934    2567
CTETRA     31706       1    4118    3597    3691    3692
CTETRA     31707       1    3691    4199    3270    3829
CTETRA     31708       1    3865    1626    3613    1604
CTETRA     31709       1    3691    3270    3630    2129
CTETRA     31710       1    3865    3690    3691    3597
CTETRA     31711       1    3998    3829    3691    2129
CTETRA     31712       1    3998    3901    3829    3268
CTETRA     31713       1    3270    3829    2129    3691
CTETRA     31714       1    2131    3270    3829    2129
CTETRA     31715       1    2985    3998    3613    3811
CTETRA     31716       1    2918    3869    3868    3332
CTETRA     31717       1    2915    1952    3988    2982
CTETRA     31718       1     317    1303     320     319
CTETRA     31719       1    3988    4181    3180    1953
CTETRA     31720       1    2918    3908    3044    3364
CTETRA     31721       1    2918    3989    4008    3044
CTETRA     31722       1    4008    4009    3869    3371
CTETRA     31723       1    3371    4009    3869    3330
CTETRA     31724       1    3506    1829    1378    3328
CTETRA     31725       1     724     722     711     710
CTETRA     31726       1    3506    1378    3511    3328
CTETRA     31727       1    1161     722    2387     742
CTETRA     31728       1    3509    3511    3513    3510
CTETRA     31729       1     718     726     725     710
CTETRA     31730       1    3513    3506     718     725
CTETRA     31731       1    4009    3989      98    4008
CTETRA     31732       1    4080    2916    2776     709
CTETRA     31733       1    2798    2776    2797    2344
CTETRA     31734       1    2373    2374     645    6418
CTETRA     31735       1    2373     645    6493    6418
CTETRA     31736       1    2491    2373     645    6493
CTETRA     31737       1    2350    2351    2491    3200
CTETRA     31738       1    2373    2367    2372    3990
CTETRA     31739       1    2374    3225    6344    6419
CTETRA     31740       1    2520    2508    2115    2114
CTETRA     31741       1    2807    3589    3195    4214
CTETRA     31742       1    1847    3791    3790    3576
CTETRA     31743       1    2508    2114    2117    2115
CTETRA     31744       1    2578    4023    2579    2265
CTETRA     31745       1    1252    3702    4199    3901
CTETRA     31746       1    3595    3783    1387    1384
CTETRA     31747       1    2915    3989    2916    2918
CTETRA     31748       1    3815    4031    3814    2986
CTETRA     31749       1    1642    3717    1633    1605
CTETRA     31750       1    1626    2344    3612    3613
CTETRA     31751       1    1626    2797    3612    2344
CTETRA     31752       1    1626    2776    2344     100
CTETRA     31753       1    3601    3584    2265    3547
CTETRA     31754       1    2623    3601    3144    2624
CTETRA     31755       1    2506    3924    3583    3256
CTETRA     31756       1    2548    3604    3584    3547
CTETRA     31757       1    3583    3627    3256    3924
CTETRA     31758       1    2623    2567    2693    2561
CTETRA     31759       1    3903    2519    2807    2534
CTETRA     31760       1    2548    3627    4089    3540
CTETRA     31761       1    1915    2781    1691    3549
CTETRA     31762       1    2090     969    3118     932
CTETRA     31763       1    2090     772    3001     969
CTETRA     31764       1    2181    1372    2089    2090
CTETRA     31765       1    2089    3567    3377    2941
CTETRA     31766       1     869     942    2060     941
CTETRA     31767       1    1774    3039     629    1088
CTETRA     31768       1    4006    1784    3038    2636
CTETRA     31769       1    1901    1897    1246    1095
CTETRA     31770       1    2877    2887    2889    2886
CTETRA     31771       1    3035    2389    4053    2925
CTETRA     31772       1    3039    2925    1713    1088
CTETRA     31773       1    1786    3534    1781    1782
CTETRA     31774       1    3037    1089    3503    3536
CTETRA     31775       1    3037    3503    1089    1088
CTETRA     31776       1    3035    2948    2389    1549
CTETRA     31777       1    2251    5457    2259    1310
CTETRA     31778       1    2251    4707    1366    5456
CTETRA     31779       1    4704    1310    5457    4707
CTETRA     31780       1    1310    5457    4707    2251
CTETRA     31781       1    2251    2259    2253    4078
CTETRA     31782       1    2251    1366    5455    5456
CTETRA     31783       1    2251    5530    1366     534
CTETRA     31784       1    2832    3561    4127    2810
CTETRA     31785       1    2832    3559    4085    3561
CTETRA     31786       1    2832    2811     613    2822
CTETRA     31787       1    2832    4085    2822     784
CTETRA     31788       1    4212    3620    4127    3561
CTETRA     31789       1    1913    3905    5912    1917
CTETRA     31790       1    2902    2891    4076    3947
CTETRA     31791       1    1906    3984    6133    6058
CTETRA     31792       1    2791    3170    3461     873
CTETRA     31793       1    1886    1896    1888    1887
CTETRA     31794       1    1888    1892    1878    4147
CTETRA     31795       1    1867    1878    1888    1892
CTETRA     31796       1    1888    1889    1887    4180
CTETRA     31797       1    1888    1878    4205    4147
CTETRA     31798       1    1870    3346    3463    3666
CTETRA     31799       1    1879    1888    1878    4205
CTETRA     31800       1    1235    2739    1093    1236
CTETRA     31801       1    1235    1093    3721    3218
CTETRA     31802       1    1093    3721    3798    2739
CTETRA     31803       1    4069    4038    2581    2741
CTETRA     31804       1    1931    3450    3454    2993
CTETRA     31805       1    3605    2905    3450    2178
CTETRA     31806       1    3570    1931    1930    2993
CTETRA     31807       1    3605    5885    2179    3606
CTETRA     31808       1    3605    5886    2179    5885
CTETRA     31809       1    1348    1508    1517    1148
CTETRA     31810       1    2992    1933    1931    1930
CTETRA     31811       1    6578    6503    3573    3575
CTETRA     31812       1    3570    3569    2905    3897
CTETRA     31813       1    3618    2760    3475    2602
CTETRA     31814       1    3751     892     746    3143
CTETRA     31815       1    3752    3699    2126     746
CTETRA     31816       1    3752    4117    2126    3699
CTETRA     31817       1    2705    4117    3752    3699
CTETRA     31818       1    3635     370    5675     371
CTETRA     31819       1    3635     370    2207    5674
CTETRA     31820       1    2823    1817    2984    2955
CTETRA     31821       1    3635     370    5674    5675
CTETRA     31822       1    3761    4114    3336    3559
CTETRA     31823       1    2717    3620    2765    2760
CTETRA     31824       1    1970    1407    1917    1914
CTETRA     31825       1     405    2891    5909    4076
CTETRA     31826       1    3258    4030    3400    1228
CTETRA     31827       1    4030    2095     755    3773
CTETRA     31828       1    3400     485    4206     611
CTETRA     31829       1    2340    4206    3400    2095
CTETRA     31830       1    4030    3773     755     297
CTETRA     31831       1    4030    1228     297     610
CTETRA     31832       1    4030     610    3400    1228
CTETRA     31833       1    4030     297    1228    2402
CTETRA     31834       1    2875    3294    3402    3676
CTETRA     31835       1    3402    3672    2524    1665
CTETRA     31836       1     810    3294    3536    3676
CTETRA     31837       1    2723    1492    2585    2301
CTETRA     31838       1    3502    3513    3328    1826
CTETRA     31839       1    2274     921    3378     920
CTETRA     31840       1    2589    2932     811    4163
CTETRA     31841       1    3964    3803    1730    3246
CTETRA     31842       1    1723    3246    1730    1722
CTETRA     31843       1    1730    3803    2658    2109
CTETRA     31844       1    1730    1722    2111    2110
CTETRA     31845       1    2630    2634    1742    2720
CTETRA     31846       1    1211    1708    1209    2675
CTETRA     31847       1    1715    3146    2658    2109
CTETRA     31848       1    2237    2171    2249    3216
CTETRA     31849       1    2578    2577    6502    6427
CTETRA     31850       1    3216    3977    3214    3217
CTETRA     31851       1    3216    3978    2249    3285
CTETRA     31852       1    3216    3977    3978    3285
CTETRA     31853       1    2737    2629    2727    2721
CTETRA     31854       1    2737    1576    3109    3718
CTETRA     31855       1    3939    2201    3369    3715
CTETRA     31856       1    3318    3826    3363    3359
CTETRA     31857       1    3939    2503    3315    2504
CTETRA     31858       1    2854    3939    3315    3322
CTETRA     31859       1    2179    3850    5736    3772
CTETRA     31860       1    2179    3772    5736    2178
CTETRA     31861       1    2178    3772    5736    5812
CTETRA     31862       1    2676    3605    3454    3450
CTETRA     31863       1    2179    3850    5810    5735
CTETRA     31864       1    3605    3606    4189    5885
CTETRA     31865       1    2179    5736    3850    5735
CTETRA     31866       1    2676    3606    1710    3451
CTETRA     31867       1    1710    3606    3850    2621
CTETRA     31868       1    3129    3128    2966    2457
CTETRA     31869       1    2179    5810    3606    5885
CTETRA     31870       1    3447    3169    3821    4051
CTETRA     31871       1    3696    2995      38    1280
CTETRA     31872       1    1646    3535    2733     799
CTETRA     31873       1    1520    2696    1402    3183
CTETRA     31874       1    1812    3183    3167    2696
CTETRA     31875       1    4136    3169    2696    3167
CTETRA     31876       1    2589    2232    4032    4213
CTETRA     31877       1    2578    2577    6427    2265
CTETRA     31878       1    4136    6242     856    3442
CTETRA     31879       1    1714    1717    2631    1715
CTETRA     31880       1    3562    2746    3564    3665
CTETRA     31881       1    1717    1715    3848    2424
CTETRA     31882       1    1717    2631    2424    2430
CTETRA     31883       1    2753    2217    2430    1717
CTETRA     31884       1    1795    4071    2011    2166
CTETRA     31885       1    1795    4069    1796    2011
CTETRA     31886       1    2578    6429    4023    6428
CTETRA     31887       1    3179    2138    1403    3191
CTETRA     31888       1    3183    4018    4019    3168
CTETRA     31889       1    3183    3169    3192    3168
CTETRA     31890       1    4018    6088    3168    3192
CTETRA     31891       1     822    3220     798    6009
CTETRA     31892       1    2492    3087    2525    4004
CTETRA     31893       1    1520    3183    1402    1403
CTETRA     31894       1    2006    6005    3823    2123
CTETRA     31895       1    3677    4014    6154    1666
CTETRA     31896       1    4004    3237    3087    2473
CTETRA     31897       1    2006    3823    6005    6080
CTETRA     31898       1    2006    5929    2123    2473
CTETRA     31899       1    6080    2006    3677    6079
CTETRA     31900       1    1880    4003    2977    2976
CTETRA     31901       1    1263    3004    3093    2199
CTETRA     31902       1    2975    3363    3359    4003
CTETRA     31903       1    6504    6429    3162    2578
CTETRA     31904       1    1404    2604    2785    4036
CTETRA     31905       1     814     815    1670    3551
CTETRA     31906       1    3616    2864    2865     701
CTETRA     31907       1    4058    1855    3997    2689
CTETRA     31908       1    1317    1320    1703    1910
CTETRA     31909       1    1468    1469    4149    4090
CTETRA     31910       1    1703    1484    1483    1705
CTETRA     31911       1    2820    3997    3452    3680
CTETRA     31912       1    1065    3616    1007    2439
CTETRA     31913       1    1076     466    1077    1075
CTETRA     31914       1    1704    6028    3940    1431
CTETRA     31915       1    3841     664     663     666
CTETRA     31916       1     666    3727    3841    3728
CTETRA     31917       1    3841    3728    3449     666
CTETRA     31918       1    3840    3399    2031     995
CTETRA     31919       1    3841    1607     663     664
CTETRA     31920       1    3961    3841    1607     663
CTETRA     31921       1    1698    3399    3841    3728
CTETRA     31922       1     998    2189     977    3449
CTETRA     31923       1    2459    1278    1279    3860
CTETRA     31924       1    1278    1223    3544    1280
CTETRA     31925       1    1291    3956    2897    3696
CTETRA     31926       1    2578    2265    2579    2577
CTETRA     31927       1    2578    6502    2577    3575
CTETRA     31928       1    1291    3956    2704    2897
CTETRA     31929       1    3857    2686    1765    2692
CTETRA     31930       1    3082    2960    3491    3083
CTETRA     31931       1    3082    3491    2998    3083
CTETRA     31932       1    2055    2486    2057    2335
CTETRA     31933       1    3667    3022    1561    2219
CTETRA     31934       1    2498    3311    2652    2651
CTETRA     31935       1    2523    1560    2960    3492
CTETRA     31936       1    3429    3843    3176    5629
CTETRA     31937       1    3249    3242    1173    1172
CTETRA     31938       1    3242    5628    3416    1173
CTETRA     31939       1     415    2921    3429    3176
CTETRA     31940       1    4097    2935    3688     416
CTETRA     31941       1    3325    3241    5704    2169
CTETRA     31942       1    5630    3843    5705    5629
CTETRA     31943       1    2485    1090    3218    1091
CTETRA     31944       1    1666    2006    2556    6079
CTETRA     31945       1    3676    1178    1548    3536
CTETRA     31946       1     810     800     809    2571
CTETRA     31947       1    3831    4012    2948    1549
CTETRA     31948       1    3061    4012    4014    2948
CTETRA     31949       1     191    2515    2605    2640
CTETRA     31950       1    1117    1758    3995    1759
CTETRA     31951       1    3481    3906    3915    3409
CTETRA     31952       1    4158    6251    3172    3745
CTETRA     31953       1    4158    6326    3115    3172
CTETRA     31954       1    4158    3745    6325    6250
CTETRA     31955       1    6401    4158    3115    3881
CTETRA     31956       1    4158    3745    6250    6251
CTETRA     31957       1    1453    3101    4158    3172
CTETRA     31958       1    2938    3017    3264    3187
CTETRA     31959       1    2627    1709    3310    2675
CTETRA     31960       1    1154    1528    1152    1155
CTETRA     31961       1    3017    3187    3189    3305
CTETRA     31962       1    3017    3964    3189    3187
CTETRA     31963       1    3964    3246    2465    3803
CTETRA     31964       1    3656    3364    2918    3332
CTETRA     31965       1    1950    2920    1952    1951
CTETRA     31966       1    2920    1958     826    2980
CTETRA     31967       1    6734    3364    6735     928
CTETRA     31968       1    2980    2920    3364     928
CTETRA     31969       1    3908     928    2920    2982
CTETRA     31970       1     709    2916    2915    4080
CTETRA     31971       1     826    2092    1958    2920
CTETRA     31972       1    3791    3195    4000    4214
CTETRA     31973       1    3791    4000    4209    3980
CTETRA     31974       1    2114    3158    2567     934
CTETRA     31975       1    2576    2578    3575    3573
CTETRA     31976       1    4209    3576    3574    3163
CTETRA     31977       1    3979    3980    3954    3574
CTETRA     31978       1    3980    3954    3574    3576
CTETRA     31979       1    1329    2507    2567    2623
CTETRA     31980       1    2567    2561    2508     934
CTETRA     31981       1     256    3633    2298    2471
CTETRA     31982       1    2298    2471    3477    3151
CTETRA     31983       1    3853    2793    3569    3934
CTETRA     31984       1    3633    3809    4672    3539
CTETRA     31985       1    1214    1215    1216    3436
CTETRA     31986       1    1758    1755    3995    1759
CTETRA     31987       1    1841    4073    4066    3928
CTETRA     31988       1    1761    1186    1756    1757
CTETRA     31989       1    3894    3151    4126    2441
CTETRA     31990       1    3633    3539     741    3809
CTETRA     31991       1    3633     741    3539    3963
CTETRA     31992       1    4016     539    2361     538
CTETRA     31993       1    2824    2361    4016     539
CTETRA     31994       1    2793    3853    1148    1517
CTETRA     31995       1    4016    2361      75     538
CTETRA     31996       1    4016      75    3472    3040
CTETRA     31997       1    4022    1502     631     541
CTETRA     31998       1    3517    2824    1999    1996
CTETRA     31999       1    3346    3458    3494    2475
CTETRA     32000       1    3463    4154    3665    4160
CTETRA     32001       1    1346    1815    1192    2967
CTETRA     32002       1    3463    4160    3462    3347
CTETRA     32003       1    3462    3463    3464    2103
CTETRA     32004       1    3664    4095    3666    2543
CTETRA     32005       1    4095    3458    3232    3457
CTETRA     32006       1    1870    1878    1892    3347
CTETRA     32007       1    3463    3464    2103    2474
CTETRA     32008       1    2792    2793    2677    3450
CTETRA     32009       1    3471    2381      75    2361
CTETRA     32010       1    3471     710    6538    6539
CTETRA     32011       1    3471    6537    3472      75
CTETRA     32012       1    3471     725     710    3472
CTETRA     32013       1    3471    3472    6537     725
CTETRA     32014       1    2274    1975    1724    2278
CTETRA     32015       1    3636    3776    4007    3394
CTETRA     32016       1     155     156    4044     153
CTETRA     32017       1    4215    1644    2632    4007
CTETRA     32018       1    2453    4006    3038    3637
CTETRA     32019       1    4070    2344    3883    2345
CTETRA     32020       1    4070    2344    2345    2346
CTETRA     32021       1    4070    3989    2991    3045
CTETRA     32022       1    4070    3989    3045      98
CTETRA     32023       1    4070    2776    3989      98
CTETRA     32024       1    4070    3989    2280    2991
CTETRA     32025       1    4070    4080    2776    2797
CTETRA     32026       1    4070    2797    2346    3872
CTETRA     32027       1    3076    3099    2899     216
CTETRA     32028       1     869     941    2060    2164
CTETRA     32029       1    2869    2469    3585    3648
CTETRA     32030       1    1963    1575    2294     672
CTETRA     32031       1     858    3638    6392     723
CTETRA     32032       1    2869    3046    2870    2719
CTETRA     32033       1     858    3914     856     857
CTETRA     32034       1    1706     880    2618    2415
CTETRA     32035       1     304    1610    1611    1596
CTETRA     32036       1    2099    3959     910     622
CTETRA     32037       1     303     318    3397     622
CTETRA     32038       1    2653    3397     303    3992
CTETRA     32039       1    3461     873    5763    5688
CTETRA     32040       1    2099      94    2101    3959
CTETRA     32041       1    4073    2168    2885    3497
CTETRA     32042       1    4066    3928    3497    3921
CTETRA     32043       1    2165    2047    4097    2074
CTETRA     32044       1    3329    2166    2885    2206
CTETRA     32045       1    3319    3081    1840    3688
CTETRA     32046       1    4066    3688    3921    3948
CTETRA     32047       1     607     642    1506     792
CTETRA     32048       1    3025    2869    2059    2719
CTETRA     32049       1     640     642    6946     639
CTETRA     32050       1     639    2260     638     642
CTETRA     32051       1    1104    1894    1105    1313
CTETRA     32052       1    4412     640    2185    6946
CTETRA     32053       1     640    2868    6945    4412
CTETRA     32054       1    2060     941     939     901
CTETRA     32055       1     357     901     193    2060
CTETRA     32056       1    2060     930     947    3223
CTETRA     32057       1     974    3566    3937    3567
CTETRA     32058       1     962     929     942     940
CTETRA     32059       1    1068     701     699     700
CTETRA     32060       1     699    6170     700    6095
CTETRA     32061       1    3440    6093     699    2285
CTETRA     32062       1     699    6093    1033    6094
CTETRA     32063       1     699     701    2285    6019
CTETRA     32064       1    1033    6094    6170     699
CTETRA     32065       1    1016    2337    3137     991
CTETRA     32066       1    1883    2135    2857    2856
CTETRA     32067       1    2489    3698     659    3697
CTETRA     32068       1    1980    2764    1978    2690
CTETRA     32069       1    4006    3636    1301    4007
CTETRA     32070       1    2656    1300    1301    3967
CTETRA     32071       1    2876    3801    3038    4053
CTETRA     32072       1    3533    3503    3036    3037
CTETRA     32073       1    3636    4007    3967    1301
CTETRA     32074       1    1848    2808    4088    3589
CTETRA     32075       1    4181    1953    4106    3621
CTETRA     32076       1    4181    4106    4002    3621
CTETRA     32077       1    4181    4031    4002    3929
CTETRA     32078       1    3180    4181    3621    1953
CTETRA     32079       1    2869    3023    3046    3025
CTETRA     32080       1     214     215     231    2418
CTETRA     32081       1    1251    3814     707     705
CTETRA     32082       1    4107    3863    4040    2045
CTETRA     32083       1    4109    4107    2045    2173
CTETRA     32084       1    4003    3359    2975    3629
CTETRA     32085       1    2170    1895    3325    3324
CTETRA     32086       1    2045    2566    2173    4107
CTETRA     32087       1    5785    2045    2566    2173
CTETRA     32088       1    4107    3738    4036    2566
CTETRA     32089       1    4107    3737    3738    2173
CTETRA     32090       1    5786    2566    2045    3863
CTETRA     32091       1    2208    2221    3740    2052
CTETRA     32092       1    2174     473     176    3705
CTETRA     32093       1    3659    1388    3828    2411
CTETRA     32094       1    4542    2052    2221    4311
CTETRA     32095       1    4179    4178    2858    4138
CTETRA     32096       1    3662    3703    3289     816
CTETRA     32097       1     822    2138    3631    2139
CTETRA     32098       1    4018    2733    6161    2138
CTETRA     32099       1    3191    4018    6087    6086
CTETRA     32100       1    1403    2138     846    4018
CTETRA     32101       1     822     846    2138    2733
CTETRA     32102       1    3182    2785    3820    2783
CTETRA     32103       1    3191    6011    2138    6086
CTETRA     32104       1    3224    6180    1484    4045
CTETRA     32105       1    1319    2495     848    1318
CTETRA     32106       1    1983    1464    1470    1986
CTETRA     32107       1    2600    4045    6181    3224
CTETRA     32108       1    2375    1986    3224    4087
CTETRA     32109       1    3158    4172    3030    2114
CTETRA     32110       1    2522    2193    4194    3491
CTETRA     32111       1    3309    2066    3983    6648
CTETRA     32112       1    4172    2116    2114    3962
CTETRA     32113       1    3309    2880    2066    6647
CTETRA     32114       1    3405    2236    3406    3407
CTETRA     32115       1    2236    2262    2238    3406
CTETRA     32116       1    2236    3407    3288    2262
CTETRA     32117       1    2236    3406    2237    3439
CTETRA     32118       1    2236    4328    3204    4449
CTETRA     32119       1    2236    2238    4329    4432
CTETRA     32120       1    3288    4329    4328    2236
CTETRA     32121       1    4343    3288    4329    4328
CTETRA     32122       1    3408    1768    1769    3976
CTETRA     32123       1    3409    3408    6065    3915
CTETRA     32124       1    3408    6065    1768    6926
CTETRA     32125       1    3408    2926    1768    3976
CTETRA     32126       1    3408    3915    1919    6064
CTETRA     32127       1    5990    6065    5989    3915
CTETRA     32128       1    3915    6065    5989    6064
CTETRA     32129       1    3408    1768    6065    6140
CTETRA     32130       1     249    3026    1894     419
CTETRA     32131       1    3888    1855    3221    1854
CTETRA     32132       1    1868    4049    4154    2357
CTETRA     32133       1    1854    4192    1855    3221
CTETRA     32134       1    3531    3530    4058    3889
CTETRA     32135       1    1855    1853    3530    1858
CTETRA     32136       1    3107    4049    1868    1854
CTETRA     32137       1    1854    2666    1852    1855
CTETRA     32138       1    3570    3569    3450    2905
CTETRA     32139       1    6041    2454    6040    3623
CTETRA     32140       1    3907    1153    3855    3794
CTETRA     32141       1    1932    2842    2454    2841
CTETRA     32142       1    3570    1932    2840    1930
CTETRA     32143       1    2841    5965    3897    5964
CTETRA     32144       1    2841    3897    6039    5964
CTETRA     32145       1    2541    4825    1490    4813
CTETRA     32146       1    2541    4825    1491    1490
CTETRA     32147       1    3026    3041     247    3027
CTETRA     32148       1    2541    6938    1491    4824
CTETRA     32149       1    2541    1491    2687    1745
CTETRA     32150       1     709    3988    1951    4181
CTETRA     32151       1    4181    1965    4106    1966
CTETRA     32152       1    4801    1490    4813    2541
CTETRA     32153       1    3226    2907    3790    4037
CTETRA     32154       1    2683    2260    2460    2213
CTETRA     32155       1    2683    2158     795    6953
CTETRA     32156       1    3955    4186    2837    2686
CTETRA     32157       1    3857    3955    2686    3956
CTETRA     32158       1    1419    2762     708    2444
CTETRA     32159       1    2877    2511    2515     436
CTETRA     32160       1    3955    2909    3957    3678
CTETRA     32161       1    3545    3859    2924    3678
CTETRA     32162       1    3544    3545    3857    3956
CTETRA     32163       1    3056    1307    3097    3096
CTETRA     32164       1    3092    3096    3019    3098
CTETRA     32165       1    1279    1291    1293    3833
CTETRA     32166       1    3098    1336    3095    1478
CTETRA     32167       1    3098    3055    2322    3391
CTETRA     32168       1    3390    5684    5609     649
CTETRA     32169       1    5685    5684    5609    3390
CTETRA     32170       1    1331    5534     523    2259
CTETRA     32171       1     523    2259    4206    1331
CTETRA     32172       1    2648    2101     523    1344
CTETRA     32173       1    2340    3258    2095    3400
CTETRA     32174       1    2762    2444    2758    3868
CTETRA     32175       1     404     649    2341    2342
CTETRA     32176       1    1660    2791    2416    2650
CTETRA     32177       1    1632    4039    6292    3717
CTETRA     32178       1    4039    1632    6292    6217
CTETRA     32179       1    1631    4039    1632    3717
CTETRA     32180       1    1648    1642    3072    1641
CTETRA     32181       1    3417    4039    6217    1632
CTETRA     32182       1    3332    2918    3656    3868
CTETRA     32183       1    3717    4039    6292    6367
CTETRA     32184       1    6368    6293    3005    4039
CTETRA     32185       1    1700    2660    2487    2489
CTETRA     32186       1     331    2337    1016    2284
CTETRA     32187       1    1016     331    2598    2337
CTETRA     32188       1     991    6483    2283    2284
CTETRA     32189       1    1006    6407    3002    6482
CTETRA     32190       1    1499     330    2337    2598
CTETRA     32191       1     709     707    2797    3815
CTETRA     32192       1    1130    3399     994    2031
CTETRA     32193       1    4173    3606    2621    5809
CTETRA     32194       1    4173    5807    2620    4112
CTETRA     32195       1    4173    2620    2621    3885
CTETRA     32196       1    4173    3606    5809    5884
CTETRA     32197       1    1710    4173    3606    2621
CTETRA     32198       1     190    3345    2816    3960
CTETRA     32199       1    3674    3307     607    4084
CTETRA     32200       1    2396    2394    2395    3018
CTETRA     32201       1     474    2156    2406    2407
CTETRA     32202       1    2156    2261     638    2555
CTETRA     32203       1    3023    2639    3648    2640
CTETRA     32204       1     175    2396    2134    2394
CTETRA     32205       1    2156    2158    2407     474
CTETRA     32206       1    3674    2462     794     795
CTETRA     32207       1    2018    2062    4108    2888
CTETRA     32208       1    2018    2919    5559    2888
CTETRA     32209       1    2018    2888    5483    2062
CTETRA     32210       1    2062    2018    5484    5483
CTETRA     32211       1    2018    3412    3687    4108
CTETRA     32212       1    2018    3826    3861    3904
CTETRA     32213       1    3374    4108    2018    3687
CTETRA     32214       1    3661    1446    3662     176
CTETRA     32215       1    3073    3560    5525     370
CTETRA     32216       1    3073    5525     644    5450
CTETRA     32217       1    5450    3073    4562     644
CTETRA     32218       1    3073     644    4568    4562
CTETRA     32219       1    3282     314    3156     313
CTETRA     32220       1    3073    5448    2148    5523
CTETRA     32221       1    1196    3952    3800    3799
CTETRA     32222       1    1654    6523    1661    6448
CTETRA     32223       1    1661    6523    3358    3127
CTETRA     32224       1    1661    2939    6373    6374
CTETRA     32225       1    1661    6374    3952    2224
CTETRA     32226       1    1201    2939    1661    2224
CTETRA     32227       1    2673    3969    1973    2670
CTETRA     32228       1    1080    3914    2088    4062
CTETRA     32229       1    1051    1037    1054    1053
CTETRA     32230       1    6321    1038    1039    2088
CTETRA     32231       1    1037    1064    1039    3099
CTETRA     32232       1    1037    1084    1039    1038
CTETRA     32233       1    2272    3638    1162     374
CTETRA     32234       1    3490    3152    3156    4200
CTETRA     32235       1    2931    4191     216    3099
CTETRA     32236       1    4066    2165    3497    4073
CTETRA     32237       1    1679    4064    3551    3737
CTETRA     32238       1    2863    2520    2507    2583
CTETRA     32239       1    1679    3737    2974    4064
CTETRA     32240       1    4064    3551    3737    3844
CTETRA     32241       1     106    3843    4064     681
CTETRA     32242       1    4064    3737    2922    3844
CTETRA     32243       1    4064    4065     681    2922
CTETRA     32244       1    3133    3452    2820    1858
CTETRA     32245       1    1784     596     973     595
CTETRA     32246       1     595    3931    3591     688
CTETRA     32247       1    2463    1300    1095    1301
CTETRA     32248       1    3031    3517    2362    3512
CTETRA     32249       1    1095    1300     980    1301
CTETRA     32250       1    5245    1095     980     688
CTETRA     32251       1    1095    1300    1094     980
CTETRA     32252       1    1095    1094    1901    5245
CTETRA     32253       1    2108    2022    5444    3849
CTETRA     32254       1    3306    3302    5595    5520
CTETRA     32255       1    3302    3849    5520    3306
CTETRA     32256       1    3849    2108    5519    5444
CTETRA     32257       1    3849    5445    2022    5444
CTETRA     32258       1    3344    3849    1535    3306
CTETRA     32259       1    2023    3849    1524    1535
CTETRA     32260       1    3849    2022    5445    3731
CTETRA     32261       1    3344    1535    3849    3731
CTETRA     32262       1    1508    1362     187    1541
CTETRA     32263       1    1508    1148    1529    1517
CTETRA     32264       1    2643    1517    1360    2644
CTETRA     32265       1    1519    1508    1530    1349
CTETRA     32266       1    3230    3293    2083    4131
CTETRA     32267       1    4131    3293    2083    1361
CTETRA     32268       1    3293     187    2026    1510
CTETRA     32269       1    4017    2367    3990    3136
CTETRA     32270       1    4017    3136    6497    6572
CTETRA     32271       1    4017    6497    3136    6496
CTETRA     32272       1    2366    3962    4017    3634
CTETRA     32273       1    4017    2373    3990    2367
CTETRA     32274       1    3156    4200    3152    3234
CTETRA     32275       1    6646    3309    2880    3634
CTETRA     32276       1     998    1001    2949    3728
CTETRA     32277       1    1030    2283     991    1031
CTETRA     32278       1     992    3565    2502     974
CTETRA     32279       1    1001    3728    3726    2949
CTETRA     32280       1    1035    3724    1001    3726
CTETRA     32281       1    4210    4211     338    1577
CTETRA     32282       1     860    1322    3294    3402
CTETRA     32283       1     455    1544    1559    1554
CTETRA     32284       1     455    1547    5511    5512
CTETRA     32285       1     381     429       9    1036
CTETRA     32286       1    3570    2391    1153    1932
CTETRA     32287       1    1152    1150    1144    1155
CTETRA     32288       1    3569    3934    5889    3923
CTETRA     32289       1    3570    2993    1930    2840
CTETRA     32290       1    1403    4018    3183    3192
CTETRA     32291       1    2823    2955    3732    3421
CTETRA     32292       1    3787    3784    3785     791
CTETRA     32293       1    3732    3421    2030    3870
CTETRA     32294       1    1150    3855    3784     791
CTETRA     32295       1    3425    1521    3886    3780
CTETRA     32296       1    1583    3343    4110    3780
CTETRA     32297       1    2984    1583    4110    3780
CTETRA     32298       1    3343    3342    5745    3780
CTETRA     32299       1    2774    4009    2776    3371
CTETRA     32300       1    4009    3869    2918    4008
CTETRA     32301       1    4009      98    2776    3371
CTETRA     32302       1    3371    4009    3330    2775
CTETRA     32303       1     709    3988    4031    4080
CTETRA     32304       1    3761    4114    3559    4085
CTETRA     32305       1    2760    3925    4212    3620
CTETRA     32306       1    4114    3810    3522    4157
CTETRA     32307       1    4114    4157    3522    3622
CTETRA     32308       1    3622    2141    3973    4114
CTETRA     32309       1    4114    3339    3336    3559
CTETRA     32310       1    2760    3620    4212    4085
CTETRA     32311       1    2717    2760    3761    3620
CTETRA     32312       1    2168    4430    4423    4429
CTETRA     32313       1    2885    2166    4430    4440
CTETRA     32314       1    3329    2885     586    2206
CTETRA     32315       1    2885    2206    4440    4457
CTETRA     32316       1    2885    2206    4457    2867
CTETRA     32317       1    3497    4430    4423    2168
CTETRA     32318       1     586    2206    3262    3329
CTETRA     32319       1    1238    3216    3977    3214
CTETRA     32320       1    1214    1238    3436    3894
CTETRA     32321       1    2297    4126    3151    2298
CTETRA     32322       1    2297    2298    3151    2471
CTETRA     32323       1     557     559     388     937
CTETRA     32324       1    1433    6104    1484    1704
CTETRA     32325       1    1433    1484    6104    6179
CTETRA     32326       1    1456    3101    3148    1453
CTETRA     32327       1    1433    1484    6179    1454
CTETRA     32328       1    5832    4076    2303    5833
CTETRA     32329       1    6253    6178    1454    1497
CTETRA     32330       1     745    3699    2403     746
CTETRA     32331       1    3259     745     403    3532
CTETRA     32332       1     745    2126    3699     746
CTETRA     32333       1     745     746     509    4758
CTETRA     32334       1     745    3527    4772    3532
CTETRA     32335       1    3555    3351    2049    3999
CTETRA     32336       1    3555    2049    3350    5974
CTETRA     32337       1    3423    3555    3350    3870
CTETRA     32338       1    3552    3554    3542    2545
CTETRA     32339       1    3423    3528    3555    3870
CTETRA     32340       1    3526    6049    3555    4061
CTETRA     32341       1    1457    2438    2437    2958
CTETRA     32342       1    1457      76    4260    6803
CTETRA     32343       1    1457    2437    6804    4259
CTETRA     32344       1    1457    6804    2438    6729
CTETRA     32345       1    1457    2438    6728    6729
CTETRA     32346       1    1457    3979    6728    2438
CTETRA     32347       1    1457    3980    2438    2958
CTETRA     32348       1    2915    2982    3908    2920
CTETRA     32349       1    2915    2982    2920    1952
CTETRA     32350       1    3988    2281    4031    4080
CTETRA     32351       1    3988    3599    4181    4031
CTETRA     32352       1    3908    3989    3044    2991
CTETRA     32353       1    3908    2920    3364    2918
CTETRA     32354       1     708    1513    2917    2762
CTETRA     32355       1    3988    3180    1952    1953
CTETRA     32356       1    3824    4023    2579    4151
CTETRA     32357       1    3824    4151    4020    4023
CTETRA     32358       1    3601    2561    2579    2577
CTETRA     32359       1    3357    3144    3601    2624
CTETRA     32360       1    2506    3601    3924    2561
CTETRA     32361       1    3601    2561    2577    3924
CTETRA     32362       1    1978    1979    2693    3163
CTETRA     32363       1    2693    1979    3162    3163
CTETRA     32364       1    3124     153     154     155
CTETRA     32365       1    1252    2333    1604    3865
CTETRA     32366       1     404    4076    5834    5833
CTETRA     32367       1    3702     704    2254    1990
CTETRA     32368       1    2798     709     707    2797
CTETRA     32369       1    2747    2750     897    2748
CTETRA     32370       1    2705    4157    2309    3752
CTETRA     32371       1    1990    3935    3846    3814
CTETRA     32372       1    3814    4031    3846    2986
CTETRA     32373       1    3814    4031    3929    3846
CTETRA     32374       1    2351    4017    2367    2373
CTETRA     32375       1    2491    3201    6569    6568
CTETRA     32376       1    2491    2373    6494    6495
CTETRA     32377       1    2366    2351    4017    2367
CTETRA     32378       1    3026    2614    3053    3027
CTETRA     32379       1    2336    2373    2351    2372
CTETRA     32380       1    2351    2373    2367    2372
CTETRA     32381       1    3134    3876    2807    2002
CTETRA     32382       1    2808    2988    2987    2664
CTETRA     32383       1    3876    3589    2002     917
CTETRA     32384       1    2757    4028    2773    2763
CTETRA     32385       1    2758    2757    1980    2763
CTETRA     32386       1    2800    1423    2803    2802
CTETRA     32387       1    2757    3579    4029    3496
CTETRA     32388       1    2757    3579    3577    4010
CTETRA     32389       1    2442    2757    3577    2773
CTETRA     32390       1    3580    3579    4029    4010
CTETRA     32391       1    2990    3066    3771    2987
CTETRA     32392       1    2665    3774    2989    3771
CTETRA     32393       1    3771    3770    3774    3985
CTETRA     32394       1    1637    3774    3041    2419
CTETRA     32395       1     771    1669    2931     217
CTETRA     32396       1     949     931     930     948
CTETRA     32397       1    5006     949     931     930
CTETRA     32398       1     948     931     905    4146
CTETRA     32399       1     948     905     949    4146
CTETRA     32400       1     930     931     942     948
CTETRA     32401       1     930     942     929    1050
CTETRA     32402       1     942    2060     941     939
CTETRA     32403       1    3279     962    3345     959
CTETRA     32404       1    3566     904     949    2091
CTETRA     32405       1    3566     904     906     905
CTETRA     32406       1    1492    1495    1248    1493
CTETRA     32407       1    1495    1899    1492    1248
CTETRA     32408       1    1899    2301    3514    1731
CTETRA     32409       1    1492    4046    1494    3489
CTETRA     32410       1    1492    4046    3489    1248
CTETRA     32411       1    2833    2834    2847    2835
CTETRA     32412       1    2533    2833    2835    2836
CTETRA     32413       1    1427    2664    2535    2990
CTETRA     32414       1    2519    2862    3341    2807
CTETRA     32415       1    2548    3547    3548    3604
CTETRA     32416       1    2544    3526    3541    3540
CTETRA     32417       1    2548    3541    1694    3583
CTETRA     32418       1    2844    3526    3528    2847
CTETRA     32419       1    3542    3555    3999    3351
CTETRA     32420       1    3526    3555    6049    3626
CTETRA     32421       1    3542    3555    3626    3999
CTETRA     32422       1    6127    3768    3604    4089
CTETRA     32423       1     649    2303    5758    5683
CTETRA     32424       1    4089    6202    3627    3604
CTETRA     32425       1    2550    3540    4089    3626
CTETRA     32426       1    3627    6126    6202    4089
CTETRA     32427       1    6201    3627    6126    6202
CTETRA     32428       1    4089    3626    6126    6051
CTETRA     32429       1    1917    1919    5987    6062
CTETRA     32430       1    1394    1917    1406    1407
CTETRA     32431       1    1396     690    1394    3281
CTETRA     32432       1    3481    1970    1917    1914
CTETRA     32433       1    4076    5834     405     404
CTETRA     32434       1    1394    1917    6062    1919
CTETRA     32435       1    3482    3408    1919    1769
CTETRA     32436       1    3905    3170    5762    3461
CTETRA     32437       1    3481    1917    1919    3915
CTETRA     32438       1    6060    1907    6061    1395
CTETRA     32439       1    4058    2689    3997    4100
CTETRA     32440       1    2342    3947    2902    4076
CTETRA     32441       1    2496    3531    1431    1705
CTETRA     32442       1    2341    2902    2342    2831
CTETRA     32443       1    3530    1431    4058    1858
CTETRA     32444       1    1625    1623    1622    4038
CTETRA     32445       1    1260     893    1364     889
CTETRA     32446       1    1623    4038    2204    2874
CTETRA     32447       1    1623    4038    2874    2581
CTETRA     32448       1    1624    2204    2203    2393
CTETRA     32449       1    1097    1093    1186    2814
CTETRA     32450       1    1822    1806    1823    3106
CTETRA     32451       1    1339    2393    4068    1624
CTETRA     32452       1    2203    2204    4038    2205
CTETRA     32453       1    1624    4068    2558    2702
CTETRA     32454       1    3944    3581    3767    3764
CTETRA     32455       1    1615    2830    2343    3475
CTETRA     32456       1    1902    3946    3945    3943
CTETRA     32457       1    3986    6132    3984    6057
CTETRA     32458       1    5981    5980    3946    3986
CTETRA     32459       1    3987    6055    3986    3946
CTETRA     32460       1    3986    6055    3767    6056
CTETRA     32461       1    3986    6132    3767    3984
CTETRA     32462       1    4212    2832     613     784
CTETRA     32463       1    4212    2832    3561    4127
CTETRA     32464       1    4212    2832    4085    3561
CTETRA     32465       1    4212     784     613     612
CTETRA     32466       1    3568    4042    4001     612
CTETRA     32467       1    2342     404    4076    2902
CTETRA     32468       1    1522    1540    1542    2021
CTETRA     32469       1    1522     186     188    1541
CTETRA     32470       1    2981    1534    3484    3456
CTETRA     32471       1    1524    1522    1540    1533
CTETRA     32472       1    1521    1533    1524    1534
CTETRA     32473       1     404     405    4076    2902
CTETRA     32474       1    4647    2021    4637    2022
CTETRA     32475       1    2850    3817    3867    3818
CTETRA     32476       1    2850    3867    4164    3818
CTETRA     32477       1    3862    3867    5789    3820
CTETRA     32478       1    3862    2850    3867    2783
CTETRA     32479       1    3867    5789    3820    5864
CTETRA     32480       1    1219    2331    1442    1883
CTETRA     32481       1    3867    3821    5940    3820
CTETRA     32482       1    2003    3235    4141    3521
CTETRA     32483       1    1613    2831    2342    2343
CTETRA     32484       1    3275    4141    3235    4142
CTETRA     32485       1     649    3390    5684    5759
CTETRA     32486       1    4142    2137    3910    3275
CTETRA     32487       1    3275    4150    4142    3494
CTETRA     32488       1    4138    4178    3524    4179
CTETRA     32489       1    4178    3521    3235    3014
CTETRA     32490       1    4178    4142    2137    3910
CTETRA     32491       1    1881    3796    4152    2209
CTETRA     32492       1    1039    6247    1038    6246
CTETRA     32493       1    1039    6247    1040    1038
CTETRA     32494       1    1037    1039    1084    3099
CTETRA     32495       1    1039    1064    6247    6248
CTETRA     32496       1    3404    3407    3406    3414
CTETRA     32497       1    3405    2236    3204    3439
CTETRA     32498       1    3404    3430    3252    3414
CTETRA     32499       1    1689     313     583    1843
CTETRA     32500       1    3932    3186     752    4013
CTETRA     32501       1    3367    2736    2734    2735
CTETRA     32502       1    4095    3457    3913    4094
CTETRA     32503       1    4095    4094    3913    2037
CTETRA     32504       1    3664    4095    2038    2037
CTETRA     32505       1    3664    4095    2543    2038
CTETRA     32506       1    4095    2543    2038    2474
CTETRA     32507       1    4095    3232    3913    3457
CTETRA     32508       1    3524    4178    2180    4179
CTETRA     32509       1    4178    3910    2137    3523
CTETRA     32510       1    4178    3014    2180    3521
CTETRA     32511       1    2667    2672    4144    2856
CTETRA     32512       1    3441    3443    3447    3169
CTETRA     32513       1    6091    3440    6092    3442
CTETRA     32514       1    3440    3443    6091    3447
CTETRA     32515       1    3166    6166    4136    3443
CTETRA     32516       1    3443    3169    3166    3168
CTETRA     32517       1    3166    6090    6166    3443
CTETRA     32518       1    6165    3166    6090    6166
CTETRA     32519       1     903     962     942     941
CTETRA     32520       1     560     941    1462     962
CTETRA     32521       1     632     650     386     568
CTETRA     32522       1    1785    2590    1782    2301
CTETRA     32523       1     192    4134    3741     437
CTETRA     32524       1    2873    3919    4053    2389
CTETRA     32525       1    3899    2043     940     962
CTETRA     32526       1    1721    1348    2643    1157
CTETRA     32527       1    3402     810    1649     809
CTETRA     32528       1    3295    2220    2599    3516
CTETRA     32529       1     814    3220    3631    3738
CTETRA     32530       1    4004    3237    2473    3949
CTETRA     32531       1    1248    1901    1495    2461
CTETRA     32532       1    4148    3536    1178    4197
CTETRA     32533       1     801     800     815     809
CTETRA     32534       1    2368     801     860    1646
CTETRA     32535       1     814    3738    3845    3220
CTETRA     32536       1    1666    2493    3060    3094
CTETRA     32537       1    3822    3236    4004    2123
CTETRA     32538       1    3086    2493    3087    2151
CTETRA     32539       1    2199    1263    2152    2151
CTETRA     32540       1    3078    3237    4176    2473
CTETRA     32541       1    2151    2556    6002    2573
CTETRA     32542       1    3085    4176    5777    5852
CTETRA     32543       1    1965    3814    4031    3929
CTETRA     32544       1     707    4031    1965    3814
CTETRA     32545       1    2118    3485    4145    4186
CTETRA     32546       1    3024     486    2120    2613
CTETRA     32547       1    3032     417    3041    2445
CTETRA     32548       1     417    3032     419    3208
CTETRA     32549       1    2118    3485    3208    2121
CTETRA     32550       1     230     231    4044     153
CTETRA     32551       1    3025    2445    3041    3054
CTETRA     32552       1    2774      99     208    3371
CTETRA     32553       1    1961    3856    3595    3758
CTETRA     32554       1    1965    4106    1966    1514
CTETRA     32555       1    2442    2444    3496    2757
CTETRA     32556       1    1253    1619    2798    1626
CTETRA     32557       1    2231    4124    3684    3067
CTETRA     32558       1    1943    1945    1932    2842
CTETRA     32559       1    1735    2609    3588    3053
CTETRA     32560       1    1976    2272    3426    3638
CTETRA     32561       1    3426     935    2272    2846
CTETRA     32562       1    2274    1724    2277     920
CTETRA     32563       1     218    6472     216    6471
CTETRA     32564       1    1058    6545     935    6620
CTETRA     32565       1     724     749     739    1977
CTETRA     32566       1    2118    2639    3024    3032
CTETRA     32567       1    3662    3705     177    3289
CTETRA     32568       1    2118    4145    3434    2908
CTETRA     32569       1    2080    2968    2483    2482
CTETRA     32570       1    2349    2352    2366    2353
CTETRA     32571       1    2896    3668    3667    3022
CTETRA     32572       1    2350    2491    2490    3201
CTETRA     32573       1    3734    4166    3724    4195
CTETRA     32574       1    2054    2896    2231    2230
CTETRA     32575       1    6592    3865    3690    3691
CTETRA     32576       1    3690    6593    3692    2401
CTETRA     32577       1    3690    3597    2300    2401
CTETRA     32578       1    1485    1916    2288    1942
CTETRA     32579       1    3865    1606    3690    3594
CTETRA     32580       1    6592    3630    6667    3691
CTETRA     32581       1    3023    3205    2640    3648
CTETRA     32582       1    3588    3961    3046    2878
CTETRA     32583       1    3046    3053    3603    2719
CTETRA     32584       1    2869    3046    3585    2870
CTETRA     32585       1    2498    2652    3333    3722
CTETRA     32586       1    4111    3722    3887    3563
CTETRA     32587       1    3563    3722    3887    3888
CTETRA     32588       1    1716    1717    3132    2753
CTETRA     32589       1    3663    2628    2001    2735
CTETRA     32590       1    3311    3879    3563    4111
CTETRA     32591       1    3659    3827    3234    3207
CTETRA     32592       1    4175    3938    1878    4147
CTETRA     32593       1    5649    5574    4175    3938
CTETRA     32594       1    1199    2223    2279    2224
CTETRA     32595       1    4205    3838    4184    3938
CTETRA     32596       1    4150    4205    3938    3838
CTETRA     32597       1    4184    3938    4180    4205
CTETRA     32598       1    5723    4180    5647    4147
CTETRA     32599       1    1197    2809    2223    3919
CTETRA     32600       1    1902    2550    3746    3747
CTETRA     32601       1    1693    2550    2545    3540
CTETRA     32602       1    3751    3143    3750     891
CTETRA     32603       1    3768    6052    3746    2550
CTETRA     32604       1    6053    3768    6052    3746
CTETRA     32605       1    2544    2546    3437    2545
CTETRA     32606       1    2550    4089    6052    6051
CTETRA     32607       1    3479    1155    3785    1934
CTETRA     32608       1    3998    3612    3268    2985
CTETRA     32609       1    3998    2129    3691    3811
CTETRA     32610       1    3829    4199    3901    3998
CTETRA     32611       1    1252    2333    1626    1604
CTETRA     32612       1    1252    3691    3998    4199
CTETRA     32613       1    1470    1466    2600    3224
CTETRA     32614       1    1199    1201    1196    2224
CTETRA     32615       1    2597    2598    3558    2716
CTETRA     32616       1     336    6260    2716    3598
CTETRA     32617       1     529    1943    1933    1930
CTETRA     32618       1     336    3598    6261    6260
CTETRA     32619       1     336    6262    6186    6261
CTETRA     32620       1    2341     404    2902     405
CTETRA     32621       1    1913    1407    1917    5987
CTETRA     32622       1    3226    3195    3589    4000
CTETRA     32623       1    4048    2812    2927    2893
CTETRA     32624       1    3906    3427    3409    3481
CTETRA     32625       1    3481    1406    1919    1917
CTETRA     32626       1    2679    2702    2580    2682
CTETRA     32627       1    3936    2927    1242    4043
CTETRA     32628       1    1761    1758    1757    1756
CTETRA     32629       1    3906    3460    5915    3427
CTETRA     32630       1    1777    3281    1769     690
CTETRA     32631       1    3481    3482    3805    3408
CTETRA     32632       1    2939    1200    2610    2574
CTETRA     32633       1    2981    2718    1816    1533
CTETRA     32634       1    2730     300    2140    2849
CTETRA     32635       1    3549    2781    2547    3764
CTETRA     32636       1    2568    2394    1276    2457
CTETRA     32637       1     156     154     155    1307
CTETRA     32638       1    4133     326    1242     325
CTETRA     32639       1    2640    2515    2605    1890
CTETRA     32640       1    3674     794    3762    4084
CTETRA     32641       1    3628    3484    4086    3456
CTETRA     32642       1    3103    1199    2279    1200
CTETRA     32643       1    2559    3763    2679    2731
CTETRA     32644       1    3554    4079    2550    3747
CTETRA     32645       1     679     730    1169    1696
CTETRA     32646       1    3437    3528    3526    3555
CTETRA     32647       1    1527    1133    1134    2884
CTETRA     32648       1    3542    3626    3526    3540
CTETRA     32649       1    3405    1794    4115    1809
CTETRA     32650       1    1807    1794    2268    1795
CTETRA     32651       1    2074    4066    2165    3497
CTETRA     32652       1    3435    3439    1796    3675
CTETRA     32653       1    1808    1795    4069    1796
CTETRA     32654       1    1164    3206    1794    1810
CTETRA     32655       1    2047    1794    4097    1164
CTETRA     32656       1    1794    4097    1164    1810
CTETRA     32657       1    1810    3206    1794    4115
CTETRA     32658       1    2973    1569    1844    2183
CTETRA     32659       1    3153    3004    6073    3104
CTETRA     32660       1     888    2752    1565    2795
CTETRA     32661       1    3295    2220    2610    2599
CTETRA     32662       1     810    1649     809     801
CTETRA     32663       1    3153    2599    6147    6072
CTETRA     32664       1    3552    3542    3437    2545
CTETRA     32665       1    2706    2679    2707    2680
CTETRA     32666       1     400     403    2404    2403
CTETRA     32667       1    2081    2481    3007    3259
CTETRA     32668       1    2458    1779    3708    3008
CTETRA     32669       1    3259     745    3699    2403
CTETRA     32670       1    3306    3632    3892    1534
CTETRA     32671       1    1534    4110    3306    1524
CTETRA     32672       1    3484    1534    4110    3892
CTETRA     32673       1    3344    3632    3892    3306
CTETRA     32674       1    3423    3350    3555    3351
CTETRA     32675       1    2078    2458    2796    2081
CTETRA     32676       1    1541    2962    1347    4131
CTETRA     32677       1    1904    2782    3945    2781
CTETRA     32678       1    3421    3350    3870    3423
CTETRA     32679       1    2030    3421    3350    3870
CTETRA     32680       1    2882    3787    4102    4082
CTETRA     32681       1    3528    2825    2827    4082
CTETRA     32682       1    3423    3424    3437    3528
CTETRA     32683       1    2883    3787    4082    3139
CTETRA     32684       1    2099     918     898    1598
CTETRA     32685       1    1592    1596    1585    3996
CTETRA     32686       1    1592    1596    3996    1611
CTETRA     32687       1    1611    3995     304    3996
CTETRA     32688       1    1596     304    1585    3996
CTETRA     32689       1     898    5689    1593    1610
CTETRA     32690       1    1593    1610    5689    5690
CTETRA     32691       1    5765    5690    6930    1594
CTETRA     32692       1    3319    3890    3688    3694
CTETRA     32693       1    1567    4187    2182    2560
CTETRA     32694       1    4003    3361    3359    4040
CTETRA     32695       1    2854    3361    3363    2183
CTETRA     32696       1    2183    4171    3365    3369
CTETRA     32697       1    1567    3365    3047    3207
CTETRA     32698       1    4115    2184    3288    3407
CTETRA     32699       1    4168    4115    3250    3625
CTETRA     32700       1    3404    3430    3414    3406
CTETRA     32701       1    3404    4115    3405    3407
CTETRA     32702       1    4115    3625    3891    3203
CTETRA     32703       1    4115    3405    3288    3206
CTETRA     32704       1    3404    3625    2184    3416
CTETRA     32705       1    3404    1809    4115    3250
CTETRA     32706       1    3295    1200    2610    2220
CTETRA     32707       1     126    3652     125    3501
CTETRA     32708       1    3501    2845     127     126
CTETRA     32709       1    2274    2845    3501     126
CTETRA     32710       1    2274    2845    2846    1139
CTETRA     32711       1    2274    1929     126     193
CTETRA     32712       1    3501    2845    1139     127
CTETRA     32713       1    1139    3498    1161    2273
CTETRA     32714       1    3282     818    3156     816
CTETRA     32715       1    4073     586    3329    2885
CTETRA     32716       1     818     817    3282     584
CTETRA     32717       1    2694    2696    3169    2356
CTETRA     32718       1    1825    3328     718    1826
CTETRA     32719       1     739     858    6317    6392
CTETRA     32720       1     724     718     766     751
CTETRA     32721       1    1811    1793    1850     178
CTETRA     32722       1     711     724     718     766
CTETRA     32723       1    1829     718     751     766
CTETRA     32724       1    3926    3470    3512    2360
CTETRA     32725       1     739     740     749     766
CTETRA     32726       1     739     766     711     740
CTETRA     32727       1    1976     858    2674    1977
CTETRA     32728       1    3676    3402    3672     809
CTETRA     32729       1    1460    1880    1679    2977
CTETRA     32730       1    1248    1899    1492    2723
CTETRA     32731       1    1771    1787     973     629
CTETRA     32732       1    3061    1666    4014    3677
CTETRA     32733       1    3094    3060    1666    2569
CTETRA     32734       1     498     492     494     660
CTETRA     32735       1    1400    2155    1404    2754
CTETRA     32736       1    1679    3325    3551    4064
CTETRA     32737       1    3120    3296    2293    3153
CTETRA     32738       1    2749    3911    2751    1630
CTETRA     32739       1    3102    3060    3094    2569
CTETRA     32740       1    1936    3478    1937    1934
CTETRA     32741       1    3855    1155    3785    3479
CTETRA     32742       1    3886    3388    1521    1519
CTETRA     32743       1    2608    1638    3770    2614
CTETRA     32744       1    1428    2230    3067    1426
CTETRA     32745       1    2990    1426    2535    1427
CTETRA     32746       1    3605    3454    4189    3451
CTETRA     32747       1    1944    1933    3362    1943
CTETRA     32748       1     869     355     870    2060
CTETRA     32749       1    1939    2377    1941    1940
CTETRA     32750       1    1642    1621    3873    1605
CTETRA     32751       1    1655    6371    3953    6446
CTETRA     32752       1     887     889    1236    3682
CTETRA     32753       1    4099    2688    2689    3680
CTETRA     32754       1    4099    3679    2688    3680
CTETRA     32755       1    4099    3679    3680    1053
CTETRA     32756       1    3680    1061    4099    1053
CTETRA     32757       1    3616    2439    2286    1864
CTETRA     32758       1    2258    4050    2436    2672
CTETRA     32759       1    2858    4179    4138    2859
CTETRA     32760       1    1884    2669    1883    2667
CTETRA     32761       1    2489     659    2486    3786
CTETRA     32762       1    3786    4122    1282    1940
CTETRA     32763       1    3786    1940    1282    1283
CTETRA     32764       1    3786    2159    2160     659
CTETRA     32765       1    3786    1282    6341    1283
CTETRA     32766       1     740     749     766    3167
CTETRA     32767       1    6242     740    4136     856
CTETRA     32768       1     740     856    6242    6317
CTETRA     32769       1    1200    2220    2227    2610
CTETRA     32770       1    6241    6242     740    4136
CTETRA     32771       1     937     559    1125    1352
CTETRA     32772       1    1198    1200    2220    2227
CTETRA     32773       1    3793    2586    2005    2220
CTETRA     32774       1    3120    3516    2293    4135
CTETRA     32775       1    1199    2224    1197    2223
CTETRA     32776       1    3793    2227    2220    2611
CTETRA     32777       1    2586    3011    2619    2588
CTETRA     32778       1    2220    2611    2227    2610
CTETRA     32779       1    3345     962    1390     959
CTETRA     32780       1     512    3353    2887    4096
CTETRA     32781       1    3345    1440     959    1390
CTETRA     32782       1     189    2816    3706    2817
CTETRA     32783       1    2816    3757    3960    3345
CTETRA     32784       1    3860    1245    1279    2400
CTETRA     32785       1    2723    2996    4046     573
CTETRA     32786       1    1246    3681    1300    1336
CTETRA     32787       1    1503    2731    1505    1504
CTETRA     32788       1    3261    4068    1505    2731
CTETRA     32789       1    1291    1293    3833    2897
CTETRA     32790       1    2996    2889    2385    3678
CTETRA     32791       1    2789    3545    1222    3544
CTETRA     32792       1    2751    1788    1630    3417
CTETRA     32793       1    3247    1769    1766    3976
CTETRA     32794       1     213     153     156     161
CTETRA     32795       1    2693    1979    1981    4151
CTETRA     32796       1    2807    2002    4214    3134
CTETRA     32797       1    1420    1423    1909    1421
CTETRA     32798       1    1978    1979    3163    2764
CTETRA     32799       1    2907    4000    3790    4037
CTETRA     32800       1    1157    1346    1348    1148
CTETRA     32801       1    2693    2579    2576    3162
CTETRA     32802       1    3790    4000    1959    4209
CTETRA     32803       1     584     817    3261    2866
CTETRA     32804       1    1505     817    2185    2866
CTETRA     32805       1    2190     168    2944     170
CTETRA     32806       1     170    2942    2418    3600
CTETRA     32807       1     170    2418    3253    3775
CTETRA     32808       1    3458    2678    3346    3493
CTETRA     32809       1     168    3775    2190    2070
CTETRA     32810       1     153    3124    3126     155
CTETRA     32811       1    1881    3858    2330    2137
CTETRA     32812       1    3482    1406    1769    1919
CTETRA     32813       1    1623    2203    4038    1625
CTETRA     32814       1    1803    1216    3415    3430
CTETRA     32815       1    1755    1238    1756    1758
CTETRA     32816       1    2203    4071    2206    2205
CTETRA     32817       1    3282    2732     817     816
CTETRA     32818       1     983     985    1697    2524
CTETRA     32819       1    1663    3793    1668    2227
CTETRA     32820       1    2203    2205    4038    4071
CTETRA     32821       1    2864    1052    3679    1053
CTETRA     32822       1    2295    3914    1079    1033
CTETRA     32823       1     990    1000    1014    1001
CTETRA     32824       1    2899    3880    3148    3101
CTETRA     32825       1    2673    2088    1080    3914
CTETRA     32826       1    1080    2088    1084    1038
CTETRA     32827       1    2133    1276    2394    3018
CTETRA     32828       1    3548    4075    3604    3547
CTETRA     32829       1    3548    3765    3769    3604
CTETRA     32830       1    2547    3769    3548    3764
CTETRA     32831       1    2548    4089    2547    3540
CTETRA     32832       1    3549    3764    2547    3548
CTETRA     32833       1    2547    2550    3540    4089
CTETRA     32834       1    4089    2547    3604    2548
CTETRA     32835       1    3548    4075    3547    3546
CTETRA     32836       1    3357    3547    2548    3583
CTETRA     32837       1    2688    2689    3680    2666
CTETRA     32838       1    3493    4150    4205    1878
CTETRA     32839       1    2688    4192    5950    2689
CTETRA     32840       1    3452    3997    2666    3680
CTETRA     32841       1    2666    3997    2689    3680
CTETRA     32842       1    2666    1854    4192    1855
CTETRA     32843       1    4192    2666    2688    4165
CTETRA     32844       1    5875    4165    4192    5950
CTETRA     32845       1    3614    3277    1896    4165
CTETRA     32846       1    3533    1774    3037    3036
CTETRA     32847       1    2294    3550    3441    2287
CTETRA     32848       1    2539    1879    4205    1888
CTETRA     32849       1    3346    4095    3457    3458
CTETRA     32850       1    2355    4051    1866    2356
CTETRA     32851       1    3822     815    1680    3551
CTETRA     32852       1    2492    3078    3087    3237
CTETRA     32853       1    3086    3085    2151    3087
CTETRA     32854       1    3085    3087    2473    2151
CTETRA     32855       1    3087    2151    3094    2556
CTETRA     32856       1    1666    2556    3087    3094
CTETRA     32857       1    4004    2473    3087    2006
CTETRA     32858       1     314    3282    3156     816
CTETRA     32859       1    2709    1076    1295    1501
CTETRA     32860       1     339    3487    3697    3557
CTETRA     32861       1    3121    3588    1737    3046
CTETRA     32862       1    3576    2862    4196    3519
CTETRA     32863       1    3791    3980    4196    2799
CTETRA     32864       1    2862    4214    3791    3341
CTETRA     32865       1    3519    2862    4196    3341
CTETRA     32866       1    3791    2999    3341    4214
CTETRA     32867       1    3791    4196    3239    2799
CTETRA     32868       1    3791    3685    4000    3980
CTETRA     32869       1    3791    3576    3980    4209
CTETRA     32870       1     874     905     903    2031
CTETRA     32871       1    3558    3064    2716    2598
CTETRA     32872       1    1016    4210    2284    1030
CTETRA     32873       1    3297    2792    2388    1931
CTETRA     32874       1    1672    2663    2377    1925
CTETRA     32875       1    2055    1700    2488    1438
CTETRA     32876       1    2994    1288    1469    1984
CTETRA     32877       1    2994    1168    3454    1931
CTETRA     32878       1    2480    3007    3008    3707
CTETRA     32879       1    1779    1536    3708    3008
CTETRA     32880       1    2080    2034    2079    2033
CTETRA     32881       1    2033    2968    2456    2080
CTETRA     32882       1    2457    3070    2466    2966
CTETRA     32883       1    2226    2457    1686    2684
CTETRA     32884       1    2479    3097    3092    3096
CTETRA     32885       1    1650    1662    2795    1364
CTETRA     32886       1    2400    1245    1247    3860
CTETRA     32887       1    3097    1307    2433    3695
CTETRA     32888       1    1017    1565    1018    1962
CTETRA     32889       1    3544    1280    3956    1291
CTETRA     32890       1    3804    1367    3813    2323
CTETRA     32891       1    1278    3545    3857    3544
CTETRA     32892       1    3834    4216    2176    4211
CTETRA     32893       1    2487     659    3698     657
CTETRA     32894       1    3834    1445       5     657
CTETRA     32895       1    4210    3723    2661    3835
CTETRA     32896       1    2502     994     974     976
CTETRA     32897       1    1016    2284    4210     331
CTETRA     32898       1    3723    4211    4210    1030
CTETRA     32899       1    4166    4026       5    4195
CTETRA     32900       1    3724    4216    3834    4211
CTETRA     32901       1    1521    3780    4110    1524
CTETRA     32902       1    2978    2965    2963    2968
CTETRA     32903       1    1346    1525    1815    2962
CTETRA     32904       1    1534    3632    3892    3484
CTETRA     32905       1    1852    3452    3614    1893
CTETRA     32906       1    2830    2602    4202    3475
CTETRA     32907       1    2770    3628    3455    3635
CTETRA     32908       1    2324    2759    2309    4157
CTETRA     32909       1    2876    4053    3038    3039
CTETRA     32910       1    1934    3479    3478    3785
CTETRA     32911       1    2882    3785    3478    4102
CTETRA     32912       1    4083    2826    4102    2825
CTETRA     32913       1    1939    2821    2242    2449
CTETRA     32914       1    2533    2835    3480    2836
CTETRA     32915       1    2835    2884    2826    2847
CTETRA     32916       1    2242    2244    4083    3478
CTETRA     32917       1    2174     473    4063    3298
CTETRA     32918       1    4063    2035    4060    2904
CTETRA     32919       1    1444    3298    1443    2113
CTETRA     32920       1    3562    3310    3563    2167
CTETRA     32921       1    3663    2628    3564    3664
CTETRA     32922       1    2630    3146    1715    2631
CTETRA     32923       1    1710    4173    3451    3606
CTETRA     32924       1    2629    2630    2720    2634
CTETRA     32925       1    1709    3885    2621    2620
CTETRA     32926       1    2881    3784    3425    1155
CTETRA     32927       1    2633    1570    2634    1559
CTETRA     32928       1    2633    1711    2644    1559
CTETRA     32929       1    2451    2498    1652    1987
CTETRA     32930       1    2450    2498    2651    3311
CTETRA     32931       1    2498    3851    2652    3722
CTETRA     32932       1     472    3298     473    1851
CTETRA     32933       1    1061    1054    3680    1481
CTETRA     32934       1    3570    3897    1153    3569
CTETRA     32935       1    2651    4112    2652    2364
CTETRA     32936       1    2539    1879    1882    2669
CTETRA     32937       1    1714    1860    2628    1716
CTETRA     32938       1    2937    2134    1677    1851
CTETRA     32939       1    1790    2463    2656    1300
CTETRA     32940       1    2327    1250     704    1387
CTETRA     32941       1    1899    1492    2723    2301
CTETRA     32942       1    1587    1786    1377    1774
CTETRA     32943       1    1246    2722    2461    1248
CTETRA     32944       1    1335    2656    1336    1300
CTETRA     32945       1    2937     592    3303     472
CTETRA     32946       1    1492    4046    1248    2723
CTETRA     32947       1    1278    1280    3544    1291
CTETRA     32948       1    2809    2223    1488    3105
CTETRA     32949       1    2169    2128    4064    3843
CTETRA     32950       1    3429    2169    5629    3242
CTETRA     32951       1    2169    5705    3325    2128
CTETRA     32952       1     415    4168    1810    3250
CTETRA     32953       1    3324    2169    3429    3242
CTETRA     32954       1     762    1683    1803    3181
CTETRA     32955       1    3241    2169    3242    5704
CTETRA     32956       1    4191    2670    1084    3099
CTETRA     32957       1    1414    2670    3099    1084
CTETRA     32958       1     560     869     941     903
CTETRA     32959       1    2294    3441    3453    2287
CTETRA     32960       1     770     932    3880     217
CTETRA     32961       1    2274     921     920     193
CTETRA     32962       1    2012    2502    3565     974
CTETRA     32963       1     959    2358    3279     962
CTETRA     32964       1    3099    4191     216    3076
CTETRA     32965       1    2691    3824    2579    4151
CTETRA     32966       1    3144    2565    2691    1833
CTETRA     32967       1    2576    1847    3163    3576
CTETRA     32968       1    3240    3242    3249    1172
CTETRA     32969       1    3435    3430    3405    3439
CTETRA     32970       1    1795    4097    1794    2268
CTETRA     32971       1    2047    1795    4097    1794
CTETRA     32972       1    3689    3374    3370    2975
CTETRA     32973       1    3535    3505     860    3327
CTETRA     32974       1    3178    2733    3535    3173
CTETRA     32975       1    1812     749    3167     766
CTETRA     32976       1    1829     766    1825     718
CTETRA     32977       1    2368     600    2155    1400
CTETRA     32978       1    1975    2271    2278    2276
CTETRA     32979       1     872    2282    1379    1645
CTETRA     32980       1     629    3534     631     628
CTETRA     32981       1    2996    3678    2385    3418
CTETRA     32982       1    3865    3811    3998    3691
CTETRA     32983       1    6591    6667    3691    6592
CTETRA     32984       1    1879    3493    4205    1878
CTETRA     32985       1    1882    1870    1869    2429
CTETRA     32986       1    6918    3865    3811    3613
CTETRA     32987       1     469    1479    1317     380
CTETRA     32988       1    1465    1454    1455    3117
CTETRA     32989       1    3865    1604    6919    6516
CTETRA     32990       1    3865    3690    1606    6516
CTETRA     32991       1    3865    3998    3613    1626
CTETRA     32992       1    1810     415    3250    3251
CTETRA     32993       1    3319    1840    3081    3157
CTETRA     32994       1    1409    1982    2268    1810
CTETRA     32995       1    1848    1972    3226    2805
CTETRA     32996       1    3079    3207    2061    3175
CTETRA     32997       1    1555    3081    3080    1840
CTETRA     32998       1    3234    1111    3207    1555
CTETRA     32999       1    1351    1409    1982    2268
CTETRA     33000       1    1880    2974    1876    1679
CTETRA     33001       1    3080    3490    4200    3152
CTETRA     33002       1    4003    2975    2974    4109
CTETRA     33003       1    4073    3329    2166    2885
CTETRA     33004       1     816    4200    1446    3662
CTETRA     33005       1    1697    2492    1820    2525
CTETRA     33006       1    1858    2666    3997    1855
CTETRA     33007       1    1841    3490     583    4073
CTETRA     33008       1    2672    3818    4167    2851
CTETRA     33009       1    3240    3237    3241    4176
CTETRA     33010       1    3237    3241    3325    1895
CTETRA     33011       1    3241    3949    5779    5854
CTETRA     33012       1    3241    5853    4176    3949
CTETRA     33013       1    1858    4058    1855    3997
CTETRA     33014       1    2633    1559    1554    1570
CTETRA     33015       1    1360    1741    3587    1361
CTETRA     33016       1    1347    4131    2967    4188
CTETRA     33017       1    2167    3564    2161    2518
CTETRA     33018       1    1866    2696    2356    3169
CTETRA     33019       1    1403     846    3178    4018
CTETRA     33020       1    2754    2976    2785    3300
CTETRA     33021       1    2155    2754    4036    1404
CTETRA     33022       1    2783    2755    1865    2785
CTETRA     33023       1    1403    3192    3191    4018
CTETRA     33024       1    2913    1713    6531     668
CTETRA     33025       1    2913     628    3592    1713
CTETRA     33026       1    2913     628     668    2928
CTETRA     33027       1    2913     668    6531    6532
CTETRA     33028       1    2535    2807    3903    3876
CTETRA     33029       1    1325    1328    2807    2863
CTETRA     33030       1    1848    3195    2807    3589
CTETRA     33031       1    2327    1386    1384    3020
CTETRA     33032       1    1637    3774    1638    3027
CTETRA     33033       1    2417    2423     169     171
CTETRA     33034       1    3519     934    3974    3576
CTETRA     33035       1    1131    2031     994     976
CTETRA     33036       1    3755    3711    3185    1607
CTETRA     33037       1     905     903     959     948
CTETRA     33038       1    2028     904     947     867
CTETRA     33039       1    1276    3018    2457    2394
CTETRA     33040       1    2975    2973    4003    2974
CTETRA     33041       1    2556    6154    6078    4014
CTETRA     33042       1     833    1353    2572    2809
CTETRA     33043       1    3119    3640    3565    3145
CTETRA     33044       1    3565     993    1005    3807
CTETRA     33045       1    3723    1029    1030    1001
CTETRA     33046       1    1021    1455    3117    1500
CTETRA     33047       1    3137    3002    3920    3117
CTETRA     33048       1    3119    3114    3122    1969
CTETRA     33049       1    3137    3117    1021    3002
CTETRA     33050       1     990    2502    1014    1000
CTETRA     33051       1     777    3684    2231     776
CTETRA     33052       1    1014    1030    1016     991
CTETRA     33053       1    3137    1021    3117    1500
CTETRA     33054       1    3026    3025    3032    3041
CTETRA     33055       1    3512    2824    2361    4016
CTETRA     33056       1    2584    2589    2232    4032
CTETRA     33057       1    2360    2381    2906    3471
CTETRA     33058       1    2360    3471    2361    2381
CTETRA     33059       1    3723    1016    1030    4210
CTETRA     33060       1    1829    3071    1812    1885
CTETRA     33061       1    3517    3512    4016    2824
CTETRA     33062       1    2247     870     606     920
CTETRA     33063       1    1462     869     870    2164
CTETRA     33064       1     870     355     193    2060
CTETRA     33065       1    2747    1010    2749    2751
CTETRA     33066       1    2506    3601    2624    3583
CTETRA     33067       1    2232    2585    2929    2301
CTETRA     33068       1    2232    2585    2234    2929
CTETRA     33069       1    3733    1781     628    3534
CTETRA     33070       1    2590    2585    2232    2301
CTETRA     33071       1    3723    1029    3724    4211
CTETRA     33072       1    2235    4032    2234    2232
CTETRA     33073       1    3534    3517    4016    2824
CTETRA     33074       1    2992    2993    2994     528
CTETRA     33075       1    3454    1469    2819    4189
CTETRA     33076       1    3570    1930    1931    1932
CTETRA     33077       1    3570    2841    1153    3897
CTETRA     33078       1    2994    1288     528    2819
CTETRA     33079       1    3102    1199    1353    2809
CTETRA     33080       1    3102    3093    3094    3060
CTETRA     33081       1    1224    2433      39    1223
CTETRA     33082       1    1653    3952    1196    1661
CTETRA     33083       1    2055    2488    1941    2335
CTETRA     33084       1     355    2029    1926     356
CTETRA     33085       1     867     771     870     355
CTETRA     33086       1     560     962    2358     903
CTETRA     33087       1    2028     772    1926    2029
CTETRA     33088       1     355     947     354    3223
CTETRA     33089       1     354     355    2029     947
CTETRA     33090       1     356     357    3131     193
CTETRA     33091       1     355    2060     357     193
CTETRA     33092       1    1922    1929    2846     920
CTETRA     33093       1    4099    1061    3744    1053
CTETRA     33094       1     857     858    3914    3645
CTETRA     33095       1    1067    1079    1068    2287
CTETRA     33096       1    1061    1053    6174    3744
CTETRA     33097       1    1078    1037    1053    1040
CTETRA     33098       1    1416    1051    1060    1415
CTETRA     33099       1    1499    1295    1016    1498
CTETRA     33100       1    2742    3577    2442    3579
CTETRA     33101       1    2547    3764    2781    1902
CTETRA     33102       1    3656    2762    2763    3868
CTETRA     33103       1    2662    1356    3488    3723
CTETRA     33104       1    3674     795    2157    2462
CTETRA     33105       1     176    2156    3705     473
CTETRA     33106       1     472    2396     473     474
CTETRA     33107       1    3828    2221    1443    2052
CTETRA     33108       1    3705    2554    4063     473
CTETRA     33109       1    2156    2554     473    2406
CTETRA     33110       1     473     471    2406    2904
CTETRA     33111       1    3828    3660    2411    2829
CTETRA     33112       1    2100    3400    2648    2101
CTETRA     33113       1    2340    1331    4078    2253
CTETRA     33114       1    2340    4206    4078    1331
CTETRA     33115       1    3400    1228     610      94
CTETRA     33116       1    2340     649    1331    2253
CTETRA     33117       1    3400    4030    2095     485
CTETRA     33118       1    4206     406     523    2225
CTETRA     33119       1    2225    4206    2101     523
CTETRA     33120       1    4206    2095    4078    2149
CTETRA     33121       1    2747    1048    1010    2751
CTETRA     33122       1     956    2485    1806    1805
CTETRA     33123       1    1663    3515    3793    2220
CTETRA     33124       1     986    1012    1748     689
CTETRA     33125       1     888     897    1565    2752
CTETRA     33126       1    2954    1971    2464    2423
CTETRA     33127       1    2586    2587    3683    4021
CTETRA     33128       1    3698     657     659     989
CTETRA     33129       1    2487    4166    3834    3379
CTETRA     33130       1    2055    1438    1435    2057
CTETRA     33131       1     775    1428    2229    1732
CTETRA     33132       1    2337    1016    2284     991
CTETRA     33133       1    2661    3557    1016    4210
CTETRA     33134       1     657    3698    3835     989
CTETRA     33135       1    3697     989    3063    3835
CTETRA     33136       1    2931    4191    3099    2670
CTETRA     33137       1    2247    2931     606     771
CTETRA     33138       1    1039    2088    4191    6321
CTETRA     33139       1    2931     606     216    2670
CTETRA     33140       1    3969    2088    6395    6396
CTETRA     33141       1    4191    1039    6397    6398
CTETRA     33142       1     858    3638    3645    6393
CTETRA     33143       1    1669     868     870    2247
CTETRA     33144       1     633     868     560    2013
CTETRA     33145       1     549     552    1791     550
CTETRA     33146       1    2642     436    2908    3647
CTETRA     33147       1     521    1894    3411     593
CTETRA     33148       1    3734    3379    4123    3725
CTETRA     33149       1    3728    3729    1698    1035
CTETRA     33150       1    2219    3082    3667    3196
CTETRA     33151       1    1434    3155    3667    3668
CTETRA     33152       1     158     160     132    4026
CTETRA     33153       1    3196     132    3197    3022
CTETRA     33154       1    2057    2335    2486    2350
CTETRA     33155       1    2486    2489    1941    2055
CTETRA     33156       1    2335    2365    2349    1435
CTETRA     33157       1    3196     135     132    2219
CTETRA     33158       1    1009    4072    2435    2606
CTETRA     33159       1    1009    5869    4170    5870
CTETRA     33160       1    1009    2606    3538    5869
CTETRA     33161       1    1009    2435    3538    2606
CTETRA     33162       1    1009    4170    5795    5870
CTETRA     33163       1    1009    4170    4072    4156
CTETRA     33164       1    2334    2447    2448    2449
CTETRA     33165       1    2672    4072    4144    2606
CTETRA     33166       1    1009    4156    4072    3709
CTETRA     33167       1    3645    2088    6320    6395
CTETRA     33168       1    3961    1608    3046    2878
CTETRA     33169       1    3279    2771    2605    2147
CTETRA     33170       1    3588    3603    3053    2369
CTETRA     33171       1    3585    3960    2612    1608
CTETRA     33172       1    3046    2870    1608    3585
CTETRA     33173       1    3603    3046    2870    1608
CTETRA     33174       1    3398    3961    1737     663
CTETRA     33175       1    2024    2771    3398    3711
CTETRA     33176       1    1221    1389    1219    1220
CTETRA     33177       1    2857    2560    2182    4187
CTETRA     33178       1    1567    3047    3365    4187
CTETRA     33179       1    2854    3939    3363    3315
CTETRA     33180       1    2784    2850    2258    2671
CTETRA     33181       1    2042    2851    2041    2860
CTETRA     33182       1    2041    2859    3322    2039
CTETRA     33183       1    3645     857    6318    6319
CTETRA     33184       1    3322    3315    2041    3034
CTETRA     33185       1     255     881    1761     878
CTETRA     33186       1    2186    2694    2356    2696
CTETRA     33187       1    3662    3703    2557    3704
CTETRA     33188       1    2662    3698    2661    3835
CTETRA     33189       1    4063    3704    2517    2048
CTETRA     33190       1     589    1113    1221    1398
CTETRA     33191       1     809    3402    3672    2524
CTETRA     33192       1    3822    3670    1670    3551
CTETRA     33193       1    3017    3303    3264    3305
CTETRA     33194       1    3660    4185    3662    4200
CTETRA     33195       1    3234    1110    2175    3659
CTETRA     33196       1    3289     301     177    2730
CTETRA     33197       1    1569    1573    2182    2854
CTETRA     33198       1    1109    1218    1442    1391
CTETRA     33199       1    1897    1095    2463    1300
CTETRA     33200       1    1787     973     629     628
CTETRA     33201       1    2653    3465    3992    1609
CTETRA     33202       1    3465     304    1611    3995
CTETRA     33203       1    3444    4137    3996     304
CTETRA     33204       1    2525    4004    3672    3822
CTETRA     33205       1    1611    3995    3996    1759
CTETRA     33206       1    3411     521    2995    1311
CTETRA     33207       1    2908    3955    2382    2909
CTETRA     33208       1     419    3485     593     230
CTETRA     33209       1    3434    3381    2382     486
CTETRA     33210       1    2387     742     722    6541
CTETRA     33211       1    3498    1140     377     125
CTETRA     33212       1    2387    6541     722    6540
CTETRA     33213       1    1140    2397    6691    2387
CTETRA     33214       1    3470    2387     710    3471
CTETRA     33215       1    3471    2387    6539    6614
CTETRA     33216       1    3672    3822    4004    2006
CTETRA     33217       1    2360     377    2906    2381
CTETRA     33218       1    2342     404    2303    4076
CTETRA     33219       1    1906    6058    2891    3984
CTETRA     33220       1    1904    2602    3747    3943
CTETRA     33221       1    1907    5909     405    2891
CTETRA     33222       1    1907    1906    5984    2891
CTETRA     33223       1    2342    2831    3947    3266
CTETRA     33224       1    2559     609    3763    2731
CTETRA     33225       1    3936    3427    4043    1242
CTETRA     33226       1    3482     690    1970    1748
CTETRA     33227       1    1503    3763    2731    2679
CTETRA     33228       1    1670    3823    2123    3822
CTETRA     33229       1    2458    2080    2480    2081
CTETRA     33230       1    1267    2703    1268    2706
CTETRA     33231       1    2157    2462    2684    2394
CTETRA     33232       1    2458    2462    1779    2394
CTETRA     33233       1    3552    1750    1903    2545
CTETRA     33234       1    2956    3351    3349    3421
CTETRA     33235       1    3552    3437    1750    2545
CTETRA     33236       1    2759    3469    2096    3568
CTETRA     33237       1    3892    3455    3653    3484
CTETRA     33238       1    3703    4415    2554    2555
CTETRA     33239       1    3703    2868    4415    2555
CTETRA     33240       1    2557    3704    3660    3662
CTETRA     33241       1    3703     816     817    3289
CTETRA     33242       1    2048    2557    2554    3704
CTETRA     33243       1    3822    2123    4004    2006
CTETRA     33244       1    2854    2182    4171    4193
CTETRA     33245       1    1795    1776    1841    2268
CTETRA     33246       1    1844    2183    1567    3365
CTETRA     33247       1    1875    1982    3688    1840
CTETRA     33248       1    1841    4066    4073    1795
CTETRA     33249       1    2458    3707    3008    3708
CTETRA     33250       1    2796    3707    2594    3255
CTETRA     33251       1    2458    3708    2796    3707
CTETRA     33252       1    2594    2462    2796     794
CTETRA     33253       1    2796    2462     793     794
CTETRA     33254       1     794    3762    2594    2462
CTETRA     33255       1    3255    3707    2081    2796
CTETRA     33256       1    1015    1000    1034    1014
CTETRA     33257       1    5833    4076    5908    5832
CTETRA     33258       1    4076    2303    5833     404
CTETRA     33259       1    2342    4081    4076    2303
CTETRA     33260       1    4081    5757    2303    2304
CTETRA     33261       1    4081    4076    4093    3947
CTETRA     33262       1    4081    4076    5907    4093
CTETRA     33263       1    4081    2304    5756    5757
CTETRA     33264       1    3785    2882    2881    3784
CTETRA     33265       1    1001    3726    3724    1029
CTETRA     33266       1    2768    2770    3336    3628
CTETRA     33267       1    3552    3351    3423    3555
CTETRA     33268       1    1526    2835    3480    2531
CTETRA     33269       1    3424    2884    3437    3528
CTETRA     33270       1    4027    2827    6047    4082
CTETRA     33271       1    1458    1460    1459    1880
CTETRA     33272       1    1567    4171    2182    4187
CTETRA     33273       1    2182    4193    2041    2859
CTETRA     33274       1    1866    3182    2783    1865
CTETRA     33275       1    3152    1843    1841    3490
CTETRA     33276       1    1555    3152    3207    3234
CTETRA     33277       1    2182    4138    4187    2859
CTETRA     33278       1    1836    2436    1837    2667
CTETRA     33279       1    1314    1313    1174    2511
CTETRA     33280       1    4175    3462    3347    1878
CTETRA     33281       1    4140    5574    4175    5575
CTETRA     33282       1    4175    3462    5575    5650
CTETRA     33283       1    4175    4147    5724    5649
CTETRA     33284       1    4175    5724    4147    5725
CTETRA     33285       1    4175    1892    3277    4147
CTETRA     33286       1     879     256     254    1993
CTETRA     33287       1    1268    1955    1266    2706
CTETRA     33288       1    2297    1238    3894    4126
CTETRA     33289       1    4069    1808    1796    3199
CTETRA     33290       1    2297    3476    4126    2298
CTETRA     33291       1    1808    1796    3199    1807
CTETRA     33292       1    1794    3435    1796    1807
CTETRA     33293       1    1622    3675    4069    2202
CTETRA     33294       1    1589    3511    1378    1377
CTETRA     33295       1    2932    3652    2271    2276
CTETRA     33296       1    2274    3651    3378     921
CTETRA     33297       1     739     858     856    6317
CTETRA     33298       1    4163     813     859    4041
CTETRA     33299       1    4041     813     859     392
CTETRA     33300       1     392     126    3652     125
CTETRA     33301       1    3312    4182    3090    1755
CTETRA     33302       1    3312    4125    3996    3111
CTETRA     33303       1    3312    3996    4125    1755
CTETRA     33304       1    3312    4182    3313    3090
CTETRA     33305       1    3312    3314     951    3111
CTETRA     33306       1     583     586    3490     818
CTETRA     33307       1    1070    1073    1380    1023
CTETRA     33308       1     178     314     177    2732
CTETRA     33309       1    1340     586    3262    3329
CTETRA     33310       1    1482    1004    1415    1054
CTETRA     33311       1    2867    2206    3262     586
CTETRA     33312       1     586    2867    2885    2551
CTETRA     33313       1     586    2885    2168    2551
CTETRA     33314       1    4073    3490    2168    3928
CTETRA     33315       1    1840    1843    1841    3152
CTETRA     33316       1    2674    3645    2088    3914
CTETRA     33317       1    6471    3426    6396     216
CTETRA     33318       1     858    3645     857    6318
CTETRA     33319       1     740     856     739     749
CTETRA     33320       1    1976    3638     858     723
CTETRA     33321       1    1110    1556    1446    1114
CTETRA     33322       1     724    1977     739     723
CTETRA     33323       1     125     811    3498    3652
CTETRA     33324       1     724    1977     750     749
CTETRA     33325       1    2492    4004    3237    3087
CTETRA     33326       1    1235    3700    1236     889
CTETRA     33327       1    1339    4068    1338    2558
CTETRA     33328       1    1807    2268    1808    1795
CTETRA     33329       1    2493    3087    2151    3094
CTETRA     33330       1    1666    2006    4004    3087
CTETRA     33331       1    1460    1682    1880    1270
CTETRA     33332       1    1296    1016    3557    2598
CTETRA     33333       1    1678    1683    1895    1682
CTETRA     33334       1    1944    2391    1932    1945
CTETRA     33335       1    3570    1932    1153    2841
CTETRA     33336       1    3570    2841    3897    2840
CTETRA     33337       1    1932    2840    1930    2842
CTETRA     33338       1    1945    1940    4057    1943
CTETRA     33339       1    1949    1945    1943    1940
CTETRA     33340       1    3695     156    3696    4044
CTETRA     33341       1    1048    1748    3247    3482
CTETRA     33342       1    1627    3199    1808    1622
CTETRA     33343       1    2598    1499    1295    1016
CTETRA     33344       1    3461    2647     873     898
CTETRA     33345       1    3945    3943    3946    4093
CTETRA     33346       1    2782    2902    3947    2891
CTETRA     33347       1    3552    1750    1738    3553
CTETRA     33348       1    1035    3488    3729    1034
CTETRA     33349       1     251    2780    1170     651
CTETRA     33350       1    3944    3581    2781    1918
CTETRA     33351       1    2331    1881    2209    2330
CTETRA     33352       1    2852    3361    1573    3896
CTETRA     33353       1     565     570     569     988
CTETRA     33354       1     990    1001    1014    1030
CTETRA     33355       1    1399    1446    2175    3661
CTETRA     33356       1    1882    2678    2136    3493
CTETRA     33357       1    2208    1388    2221    1443
CTETRA     33358       1    2858    2856    4174    4143
CTETRA     33359       1    1879    4190    4205    3493
CTETRA     33360       1    1837    2436    2435    4072
CTETRA     33361       1    2783    3862    2850    2785
CTETRA     33362       1    1844     806    1567    1569
CTETRA     33363       1    1883    2856    4174    2135
CTETRA     33364       1    2669    2668    4184    4143
CTETRA     33365       1    3226    4000    3790    3195
CTETRA     33366       1    1900     596    1099    3514
CTETRA     33367       1    2136    2137    3493    3458
CTETRA     33368       1    4174    4178    3521    4142
CTETRA     33369       1    1882    1883    2669    4190
CTETRA     33370       1    4174    4142    3838    4190
CTETRA     33371       1    2669    3838    4143    4184
CTETRA     33372       1    3825    5635    2919    3629
CTETRA     33373       1    3825    2018    3370    2919
CTETRA     33374       1    3370    2018    4108    2888
CTETRA     33375       1    3370    2975    3359    3629
CTETRA     33376       1    3374    2018    3370    3826
CTETRA     33377       1    3370    4065    2888    4108
CTETRA     33378       1    3370    4065    2975    4109
CTETRA     33379       1     178     175     300     177
CTETRA     33380       1    2140    1537    2849    2132
CTETRA     33381       1    3648     191    3646    2816
CTETRA     33382       1    2904     472     471    3305
CTETRA     33383       1    1444    3298    1398    1443
CTETRA     33384       1    1007    3617    1863    3616
CTETRA     33385       1    3305     472     471    3303
CTETRA     33386       1    3120    3700    4135    2293
CTETRA     33387       1    1650    1200    3295    2220
CTETRA     33388       1     274     504     503    1141
CTETRA     33389       1    2794    2795    2586    2752
CTETRA     33390       1    1960    3210    2329    1656
CTETRA     33391       1    3515    3011    2586    3012
CTETRA     33392       1    2795    2586    2220    3516
CTETRA     33393       1    3295    3120    2599    3153
CTETRA     33394       1    3896    3862    3300    2850
CTETRA     33395       1    2850    2785    2784    2783
CTETRA     33396       1    1403    1404    3191    3182
CTETRA     33397       1    3896    3300    2784    2850
CTETRA     33398       1    2976    2785    3863    4036
CTETRA     33399       1    2976    3863    2785    4040
CTETRA     33400       1    2754    4036    2976    4107
CTETRA     33401       1    1845    3689    3319    1875
CTETRA     33402       1    2410    2411    2221    1388
CTETRA     33403       1     673    1871    2356    1866
CTETRA     33404       1     450     821    1177     721
CTETRA     33405       1    2996    2585    4046    2154
CTETRA     33406       1    3941    3859     573    4046
CTETRA     33407       1    3545    3941    3859     573
CTETRA     33408       1    2584    4032    2232    2585
CTETRA     33409       1    1783     973    1784     596
CTETRA     33410       1    2723    2722    1248    2461
CTETRA     33411       1    1333    2831    1613    2343
CTETRA     33412       1    3961    3585    3046    1608
CTETRA     33413       1    1792    1766     692    1777
CTETRA     33414       1    1814     161     154     153
CTETRA     33415       1     706    1513    1965     709
CTETRA     33416       1     685    3496    2444    2787
CTETRA     33417       1    3072    1777    1778    1630
CTETRA     33418       1    2691    2623    2693    2579
CTETRA     33419       1    1847    3576    3790    3163
CTETRA     33420       1    3961    2878     663    1607
CTETRA     33421       1    2623    3601    2624    2561
CTETRA     33422       1    2881    3732    3425    3784
CTETRA     33423       1    1985    1987    2651    2450
CTETRA     33424       1    1819    2984    1521    3425
CTETRA     33425       1    2978    2962    2964    2963
CTETRA     33426       1    2965    2963    2968    2966
CTETRA     33427       1    1346    2962    1815    2967
CTETRA     33428       1    2458    2394    1779    2568
CTETRA     33429       1    2765    3618    2760    3620
CTETRA     33430       1    5850    5775    5851    3085
CTETRA     33431       1    2152    3085    3243    5850
CTETRA     33432       1    3085    2151    5926    2152
CTETRA     33433       1    1172    3078    3243    3240
CTETRA     33434       1    3078    3085    2473    4176
CTETRA     33435       1    3085    1172    5776    5777
CTETRA     33436       1    1079    1080    4062    3914
CTETRA     33437       1    1079    1033     699    2287
CTETRA     33438       1    1068    1079     699    2287
CTETRA     33439       1    2295    1080    1079    3914
CTETRA     33440       1    1037    1053    1061    1054
CTETRA     33441       1    1078    1068    1079     700
CTETRA     33442       1    2497    3333    2518    3107
CTETRA     33443       1    1335    2656    2657    1336
CTETRA     33444       1    1898    1897    1770    1772
CTETRA     33445       1    1653    1661    3358    3127
CTETRA     33446       1    1195    1668     553    1201
CTETRA     33447       1     432    1772    1898    1770
CTETRA     33448       1    1201    2939    1200    2227
CTETRA     33449       1    2865    5947    1002    2815
CTETRA     33450       1    2865    5948    3679    1002
CTETRA     33451       1    3616    2815    1864    4169
CTETRA     33452       1    5946    2815    5947    2865
CTETRA     33453       1    6022    6023    2864    2865
CTETRA     33454       1    3362    2377    1940    4122
CTETRA     33455       1    3398     663    1737    1698
CTETRA     33456       1    3684     663     665    3727
CTETRA     33457       1    3684    3588    2308     665
CTETRA     33458       1    3684    2306    4123    3727
CTETRA     33459       1    3684    2307    3067    4124
CTETRA     33460       1    2803    1421    3581    1918
CTETRA     33461       1    2801    2802    3580    2800
CTETRA     33462       1    1709    3719    1711    2725
CTETRA     33463       1    1187    1347    4188    1722
CTETRA     33464       1    1985    3454    3451    4189
CTETRA     33465       1    1484    1705    4087    1483
CTETRA     33466       1    1190    2659    1752    1723
CTETRA     33467       1    3026    3027    3025    3041
CTETRA     33468       1    1708    1711    3607    2644
CTETRA     33469       1    2522    2353    3492    3491
CTETRA     33470       1    1468    4149    2375    4090
CTETRA     33471       1    1466    1501    2597    1499
CTETRA     33472       1    1501    1466    1464    1077
CTETRA     33473       1     905     874     976    2031
CTETRA     33474       1     632     563     514     515
CTETRA     33475       1    1077    1499    1466    1500
CTETRA     33476       1     946     869    2060     355
CTETRA     33477       1    1432    4100    3744    6101
CTETRA     33478       1    1022    3137    1500    1021
CTETRA     33479       1    1464    1705    1986    1987
CTETRA     33480       1    3851    1986    2364    4087
CTETRA     33481       1    2993    3450    3454    2905
CTETRA     33482       1    3450    3570    2993    1931
CTETRA     33483       1    6038    2905    3897    2993
CTETRA     33484       1    2384    3902    2522    3492
CTETRA     33485       1    2429    4129    3346    2740
CTETRA     33486       1    3570    2840    1932    2841
CTETRA     33487       1    2905    3570    2993    3450
CTETRA     33488       1    2994    2993    2819     528
CTETRA     33489       1    2993    2840    6038    6113
CTETRA     33490       1     810    3676    2571     809
CTETRA     33491       1     801     800     810     799
CTETRA     33492       1    1645    3327    1646     860
CTETRA     33493       1    2458    2081    3707    2796
CTETRA     33494       1    2027    2080    2482    2968
CTETRA     33495       1    1988    1985    2450    1987
CTETRA     33496       1    3070    2033    2968    2456
CTETRA     33497       1    2521    2353    2384    2522
CTETRA     33498       1    1274    1277    2483    1581
CTETRA     33499       1    1436    2365    2582    2371
CTETRA     33500       1    2080    2027    2482    2032
CTETRA     33501       1    4138    2330    2332    3483
CTETRA     33502       1    3079    1555    1844    3157
CTETRA     33503       1    2859    2182    4138    2858
CTETRA     33504       1    4138    4179    3524    3422
CTETRA     33505       1    4138    2330    3483    3524
CTETRA     33506       1    4138    2330    3524    4178
CTETRA     33507       1    3724    4216    3726    3571
CTETRA     33508       1    3724    1029    4216    4211
CTETRA     33509       1    3724       5    3834    4216
CTETRA     33510       1    1035    3488    3724    3729
CTETRA     33511       1    3488    3834    3724    3379
CTETRA     33512       1    4166    3724    3834    3379
CTETRA     33513       1    1168    2994    1167    1931
CTETRA     33514       1    2825    2882    3528    2826
CTETRA     33515       1    2634    1741    2635    2630
CTETRA     33516       1    1136    2835    2533    2848
CTETRA     33517       1    3433    2826    2834    2835
CTETRA     33518       1    2544    2545    3542    3540
CTETRA     33519       1    1168    1985    2994    3454
CTETRA     33520       1    3425    1150    3784    3886
CTETRA     33521       1    3732    3784    3787    1583
CTETRA     33522       1    3564    3666    4154    3665
CTETRA     33523       1    1752    1715    2630    3146
CTETRA     33524       1    1708    2644    2633    1711
CTETRA     33525       1    3784    1583    3780    3342
CTETRA     33526       1    3787    1583    3139    3732
CTETRA     33527       1    1781     973    1783     596
CTETRA     33528       1    1897    1790    1300    2463
CTETRA     33529       1    2365    2582    2371    2367
CTETRA     33530       1    1900    1784    1095     596
CTETRA     33531       1    3591    1787    1784    3038
CTETRA     33532       1    2463    1784    4006    4208
CTETRA     33533       1    2463    1301    2656    1300
CTETRA     33534       1    3274     973    3591     628
CTETRA     33535       1    3534    1782    3517    1999
CTETRA     33536       1    2876    3039    2873    4053
CTETRA     33537       1    1792    2749    1010    2751
CTETRA     33538       1    1447    1971    2954    1514
CTETRA     33539       1    3102    1353    3060    2809
CTETRA     33540       1    1127    1259    1261    3120
CTETRA     33541       1    3126     231     155    3125
CTETRA     33542       1     155     231     153    4044
CTETRA     33543       1    1514    3929    1965    4106
CTETRA     33544       1     686    1792    1010     692
CTETRA     33545       1    3020    1384    3055    3758
CTETRA     33546       1     702    1597     705    2715
CTETRA     33547       1    3126     170    3600    3432
CTETRA     33548       1    2937    1851     472    2396
CTETRA     33549       1    1399    2174     176    3661
CTETRA     33550       1     670    2257    2355    2434
CTETRA     33551       1    1287    2661    1294    1356
CTETRA     33552       1    3487     339     335    3557
CTETRA     33553       1     529     335    3487    3615
CTETRA     33554       1    3905    3906    3461    5838
CTETRA     33555       1    1913    1407    1914    1917
CTETRA     33556       1    3170    5835     404     405
CTETRA     33557       1    2340    3258    3474    2095
CTETRA     33558       1    1913    5987    1917    5912
CTETRA     33559       1    1395    1394    6136    1396
CTETRA     33560       1     404    5760    3390    5759
CTETRA     33561       1    5909    4076    5834     405
CTETRA     33562       1    2961    2964    2963    3058
CTETRA     33563       1    3058    2428    2963    2961
CTETRA     33564       1    2961    2966    4188    2428
CTETRA     33565       1    1709    3885    1710    2621
CTETRA     33566       1    2519    3903    3341    3902
CTETRA     33567       1    3812    3520    3763    3708
CTETRA     33568       1    3366    3008    3707    3708
CTETRA     33569       1    3259    3366    3707    2707
CTETRA     33570       1    2559    2731    2849     609
CTETRA     33571       1    2703    2558    2731    2702
CTETRA     33572       1    3805    3408    3248    3936
CTETRA     33573       1    3366    3707    3008    3007
CTETRA     33574       1    1579    3366    3008    3007
CTETRA     33575       1    3480    3433    2834    2835
CTETRA     33576       1    1955     400    1602    2402
CTETRA     33577       1    1118    4133    1757    1119
CTETRA     33578       1    1616    2309    2310    2705
CTETRA     33579       1    2676    1710    2179    3607
CTETRA     33580       1    1156    1157    1212    2643
CTETRA     33581       1    2676    1985    3454    3451
CTETRA     33582       1    1348    1360    1347    1741
CTETRA     33583       1    1710    3850    3607    1711
CTETRA     33584       1    3607    3850    2179    3772
CTETRA     33585       1    3607    2179    3450    2178
CTETRA     33586       1    2793    3301    4092    3607
CTETRA     33587       1    1710    3607    3850    2179
CTETRA     33588       1    2676    3450    3607    2179
CTETRA     33589       1    2676    3450    2677    3607
CTETRA     33590       1    1710    2179    3850    3606
CTETRA     33591       1    2450    2676    2675    3451
CTETRA     33592       1    1710    4173    2621    3885
CTETRA     33593       1    5771    3798    4139    2065
CTETRA     33594       1    1877    1679    2974    4064
CTETRA     33595       1    3152    1843    3490    3156
CTETRA     33596       1    2582    2367    3962    2115
CTETRA     33597       1    3243    3106    2200    1804
CTETRA     33598       1    1680    2525    3822    4004
CTETRA     33599       1    2273    3498    3500    2276
CTETRA     33600       1    2694    2356    3169    3441
CTETRA     33601       1     513     574    2790    2877
CTETRA     33602       1    1974    2695     749    1977
CTETRA     33603       1    2695    1977     856     749
CTETRA     33604       1    2883    3787    2882    4082
CTETRA     33605       1    1885    3167    1812     749
CTETRA     33606       1    2584    2996    3917    4032
CTETRA     33607       1    1307    3804    3096    1368
CTETRA     33608       1    3804    3428    3096    3654
CTETRA     33609       1    1102    2479    1791    2657
CTETRA     33610       1    1367    3804     703    1368
CTETRA     33611       1    1663    1668    3793    1687
CTETRA     33612       1    3097    1223    1280    3695
CTETRA     33613       1    3804    3096    3428    3833
CTETRA     33614       1    3096    3098    2322    3019
CTETRA     33615       1    3400    4206     485    2095
CTETRA     33616       1    1227    3258    2649    2100
CTETRA     33617       1    3460    3461    5764    1593
CTETRA     33618       1    2648    1331     649    3390
CTETRA     33619       1    2100      94    3400    2101
CTETRA     33620       1    2365    2351    2367    2372
CTETRA     33621       1    4140    3938    4150    1878
CTETRA     33622       1    4150    3938    4205    1878
CTETRA     33623       1    3356    1916    1695    3549
CTETRA     33624       1    4150    3938    5572    3838
CTETRA     33625       1    4190    3838    4150    4142
CTETRA     33626       1    3493    2137    3494    3458
CTETRA     33627       1    4150    3016    3808    3909
CTETRA     33628       1    4140    4150    3938    5573
CTETRA     33629       1    1848    3589    3226    3195
CTETRA     33630       1     990     993     974     999
CTETRA     33631       1    3002    1006    6482    1005
CTETRA     33632       1     992    3137    1021    3002
CTETRA     33633       1    1006    6557    3802    2283
CTETRA     33634       1     990     993     992     974
CTETRA     33635       1     992    1006    3002    1005
CTETRA     33636       1    1006     991    6483    2283
CTETRA     33637       1    1006    3137    2337     991
CTETRA     33638       1    1006     991    2337    6483
CTETRA     33639       1    3541    3583    3256    2514
$*
$* PROPERTY CARDS
$*
$*  NX Property: PSOLID1
PSOLID         1       1       0                           SMECH
$*
$* MATERIAL CARDS
$*
$*  NX Material: Aluminum_6061
MAT1           11.0005+7        0.3300002.5368-41.2203-5
MATT1          1       1               2               3
TABLEM1        1                                                        +
+        68.00001.0005+7 69.99801.0005+7 75.00201.0005+7100.00409.9046+6+
+       125.00609.9046+6150.00809.8046+6174.99209.7045+6199.99409.6045+6+
+       224.99609.5045+6249.99809.4044+6275.00009.3043+6300.00209.2042+6+
+       325.00409.1043+6350.00608.9042+6375.00808.8041+6399.99208.6041+6+
+       424.99408.5040+6449.99608.3038+6474.99808.1038+6500.00007.9037+6+
+       525.00207.7035+6550.00407.5035+6575.00607.3034+6600.00807.1034+6+
+       624.99206.9032+6649.99406.7031+6674.99606.4030+6699.99806.2028+6+
+       725.00006.0028+6750.00205.7026+6775.00405.5026+6800.00605.2024+6+
+           ENDT
TABLEM1        2                                                        +
+        68.00000.330000 69.99800.330000    ENDT
TABLEM1        3                                                        +
+        68.00001.2433-5199.99401.2880-5224.99601.2970-5249.99801.3060-5+
+       275.00001.3150-5300.00201.3240-5325.00401.3330-5350.00601.3410-5+
+       375.00801.3500-5399.99201.3580-5424.99401.3660-5449.99601.3740-5+
+       474.99801.3820-5500.00001.3890-5525.00201.3970-5550.00401.4040-5+
+       575.00601.4110-5600.00801.4180-5    ENDT
$*
$* LOAD AND CONSTRAINT CARDS
$*
$*  NX Load and Constraint: Fixed(1)
SPC            1    4788  123456  0.0000
SPC            1    4789  123456  0.0000
SPC            1    4790  123456  0.0000
SPC            1    4791  123456  0.0000
SPC            1    4792  123456  0.0000
SPC            1    4793  123456  0.0000
SPC            1    4794  123456  0.0000
SPC            1    4795  123456  0.0000
SPC            1    4796  123456  0.0000
SPC            1    4797  123456  0.0000
SPC            1    4798  123456  0.0000
SPC            1    4799  123456  0.0000
SPC            1    4800  123456  0.0000
SPC            1    4801  123456  0.0000
SPC            1    4802  123456  0.0000
SPC            1    4803  123456  0.0000
SPC            1    4804  123456  0.0000
SPC            1    4805  123456  0.0000
SPC            1    4806  123456  0.0000
SPC            1    4807  123456  0.0000
SPC            1    4808  123456  0.0000
SPC            1    4809  123456  0.0000
SPC            1    4810  123456  0.0000
SPC            1    4811  123456  0.0000
SPC            1    4812  123456  0.0000
SPC            1    4813  123456  0.0000
SPC            1    4814  123456  0.0000
SPC            1    4815  123456  0.0000
SPC            1    4816  123456  0.0000
SPC            1    4817  123456  0.0000
SPC            1    4818  123456  0.0000
SPC            1    4819  123456  0.0000
SPC            1    4820  123456  0.0000
SPC            1    4821  123456  0.0000
SPC            1    4822  123456  0.0000
SPC            1    4823  123456  0.0000
SPC            1    4824  123456  0.0000
SPC            1    4825  123456  0.0000
SPC            1    4826  123456  0.0000
SPC            1    4827  123456  0.0000
SPC            1    4828  123456  0.0000
SPC            1    4829  123456  0.0000
SPC            1    4830  123456  0.0000
SPC            1    4831  123456  0.0000
SPC            1    4832  123456  0.0000
SPC            1    4833  123456  0.0000
SPC            1    4834  123456  0.0000
SPC            1    4835  123456  0.0000
SPC            1    4836  123456  0.0000
SPC            1    4837  123456  0.0000
SPC            1    4838  123456  0.0000
SPC            1    4839  123456  0.0000
SPC            1    4840  123456  0.0000
SPC            1    4841  123456  0.0000
SPC            1    4842  123456  0.0000
SPC            1    4843  123456  0.0000
SPC            1    4844  123456  0.0000
SPC            1    4845  123456  0.0000
SPC            1    4846  123456  0.0000
SPC            1    4847  123456  0.0000
SPC            1    4848  123456  0.0000
SPC            1    4849  123456  0.0000
SPC            1    4850  123456  0.0000
SPC            1    4851  123456  0.0000
SPC            1    4852  123456  0.0000
SPC            1    4853  123456  0.0000
SPC            1    4854  123456  0.0000
SPC            1    4855  123456  0.0000
SPC            1    4856  123456  0.0000
SPC            1    4857  123456  0.0000
SPC            1    4858  123456  0.0000
SPC            1    4859  123456  0.0000
SPC            1    4860  123456  0.0000
SPC            1    4861  123456  0.0000
SPC            1    4862  123456  0.0000
SPC            1    4863  123456  0.0000
SPC            1    4864  123456  0.0000
SPC            1    4865  123456  0.0000
SPC            1    4866  123456  0.0000
SPC            1    4867  123456  0.0000
SPC            1    4868  123456  0.0000
SPC            1    4869  123456  0.0000
SPC            1    4870  123456  0.0000
SPC            1    4871  123456  0.0000
SPC            1    5307  123456  0.0000
SPC            1    5308  123456  0.0000
SPC            1    5309  123456  0.0000
SPC            1    5310  123456  0.0000
SPC            1    5311  123456  0.0000
SPC            1    5312  123456  0.0000
SPC            1    5313  123456  0.0000
SPC            1    5314  123456  0.0000
SPC            1    5315  123456  0.0000
SPC            1    5316  123456  0.0000
SPC            1    5317  123456  0.0000
SPC            1    5318  123456  0.0000
SPC            1    5319  123456  0.0000
SPC            1    5320  123456  0.0000
SPC            1    5321  123456  0.0000
SPC            1    5322  123456  0.0000
SPC            1    5323  123456  0.0000
SPC            1    5324  123456  0.0000
SPC            1    5325  123456  0.0000
SPC            1    5326  123456  0.0000
SPC            1    5327  123456  0.0000
SPC            1    5328  123456  0.0000
SPC            1    5329  123456  0.0000
SPC            1    5330  123456  0.0000
SPC            1    5331  123456  0.0000
SPC            1    5332  123456  0.0000
SPC            1    5333  123456  0.0000
SPC            1    5334  123456  0.0000
SPC            1    5335  123456  0.0000
SPC            1    5336  123456  0.0000
SPC            1    5337  123456  0.0000
SPC            1    5338  123456  0.0000
SPC            1    5339  123456  0.0000
SPC            1    5340  123456  0.0000
SPC            1    5341  123456  0.0000
SPC            1    5342  123456  0.0000
SPC            1    5343  123456  0.0000
SPC            1    5344  123456  0.0000
SPC            1    5345  123456  0.0000
SPC            1    5346  123456  0.0000
SPC            1    5347  123456  0.0000
SPC            1    5348  123456  0.0000
SPC            1    5349  123456  0.0000
SPC            1    5350  123456  0.0000
SPC            1    5351  123456  0.0000
SPC            1    5352  123456  0.0000
SPC            1    5353  123456  0.0000
SPC            1    5354  123456  0.0000
SPC            1    5355  123456  0.0000
SPC            1    5356  123456  0.0000
SPC            1    5357  123456  0.0000
SPC            1    5358  123456  0.0000
SPC            1    5359  123456  0.0000
SPC            1    5360  123456  0.0000
SPC            1    5361  123456  0.0000
SPC            1    5362  123456  0.0000
SPC            1    5363  123456  0.0000
SPC            1    5364  123456  0.0000
SPC            1    5365  123456  0.0000
SPC            1    5366  123456  0.0000
SPC            1    5367  123456  0.0000
SPC            1    5368  123456  0.0000
SPC            1    5369  123456  0.0000
SPC            1    5370  123456  0.0000
SPC            1    5371  123456  0.0000
SPC            1    5372  123456  0.0000
SPC            1    5373  123456  0.0000
SPC            1    5374  123456  0.0000
SPC            1    5375  123456  0.0000
SPC            1    5376  123456  0.0000
SPC            1    5377  123456  0.0000
SPC            1    5378  123456  0.0000
SPC            1    5379  123456  0.0000
SPC            1    5380  123456  0.0000
SPC            1    5381  123456  0.0000
SPC            1    5382  123456  0.0000
SPC            1    5383  123456  0.0000
SPC            1    5384  123456  0.0000
SPC            1    5385  123456  0.0000
SPC            1    5386  123456  0.0000
SPC            1    5387  123456  0.0000
SPC            1    5388  123456  0.0000
SPC            1    5389  123456  0.0000
SPC            1    5390  123456  0.0000
SPC            1    6909  123456  0.0000
SPC            1    6910  123456  0.0000
SPC            1    6911  123456  0.0000
SPC            1    6912  123456  0.0000
SPC            1    6913  123456  0.0000
SPC            1    6914  123456  0.0000
SPC            1    6915  123456  0.0000
SPC            1    6935  123456  0.0000
SPC            1    6936  123456  0.0000
SPC            1    6937  123456  0.0000
SPC            1    6938  123456  0.0000
SPC            1    6939  123456  0.0000
SPC            1    6940  123456  0.0000
SPC            1    6941  123456  0.0000
SPC            1    6942  123456  0.0000
SPC            1    6943  123456  0.0000
SPC            1    6944  123456  0.0000
SPC            1    6945  123456  0.0000
SPC            1    6946  123456  0.0000
SPC            1    6947  123456  0.0000
SPC            1    6948  123456  0.0000
SPC            1    6949  123456  0.0000
SPC            1    6950  123456  0.0000
SPC            1    6951  123456  0.0000
SPC            1    6952  123456  0.0000
SPC            1    6953  123456  0.0000
SPC            1    7029  123456  0.0000
SPC            1    7030  123456  0.0000
SPC            1    7031  123456  0.0000
SPC            1    7032  123456  0.0000
SPC            1    7033  123456  0.0000
SPC            1    7034  123456  0.0000
SPC            1    7035  123456  0.0000
SPC            1    7036  123456  0.0000
SPC            1    7037  123456  0.0000
SPC            1    7038  123456  0.0000
SPC            1    7039  123456  0.0000
SPC            1    7040  123456  0.0000
SPC            1    7041  123456  0.0000
SPC            1    7042  123456  0.0000
SPC            1    7043  123456  0.0000
SPC            1    7044  123456  0.0000
SPC            1    7045  123456  0.0000
SPC            1    7046  123456  0.0000
SPC            1    7047  123456  0.0000
SPC            1    7048  123456  0.0000
SPC            1    7049  123456  0.0000
SPC            1    7050  123456  0.0000
SPC            1    7051  123456  0.0000
SPC            1    7052  123456  0.0000
SPC            1    7053  123456  0.0000
SPC            1    7054  123456  0.0000
SPC            1    7055  123456  0.0000
SPC            1    7056  123456  0.0000
SPC            1    7057  123456  0.0000
SPC            1    7058  123456  0.0000
SPC            1    7059  123456  0.0000
SPC            1    7060  123456  0.0000
SPC            1    7061  123456  0.0000
SPC            1    7062  123456  0.0000
SPC            1    7063  123456  0.0000
SPC            1    7064  123456  0.0000
SPC            1    7067  123456  0.0000
SPC            1    7068  123456  0.0000
SPC            1    7070  123456  0.0000
SPC            1    7071  123456  0.0000
$*  NX Load and Constraint: Force(1)
FORCE          2    4217       01.797208  0.0000  0.0000-1.00000
FORCE          2    4218       01.731285  0.0000  0.0000-1.00000
FORCE          2    4219       01.661142  0.0000  0.0000-1.00000
FORCE          2    4220       01.478372  0.0000  0.0000-1.00000
FORCE          2    4221       01.511607  0.0000  0.0000-1.00000
FORCE          2    4222       01.814800  0.0000  0.0000-1.00000
FORCE          2    4223       01.672087  0.0000  0.0000-1.00000
FORCE          2    4224       01.111868  0.0000  0.0000-1.00000
FORCE          2    4225       01.597833  0.0000  0.0000-1.00000
FORCE          2    4226       01.732860  0.0000  0.0000-1.00000
FORCE          2    4227       01.804652  0.0000  0.0000-1.00000
FORCE          2    4228       01.950450  0.0000  0.0000-1.00000
FORCE          2    4229       02.283773  0.0000  0.0000-1.00000
FORCE          2    4230       01.941281  0.0000  0.0000-1.00000
FORCE          2    4231       01.822877  0.0000  0.0000-1.00000
FORCE          2    4232       02.226953  0.0000  0.0000-1.00000
FORCE          2    4233       01.961847  0.0000  0.0000-1.00000
FORCE          2    4234       01.882548  0.0000  0.0000-1.00000
FORCE          2    4235       01.910955  0.0000  0.0000-1.00000
FORCE          2    4236       01.862591  0.0000  0.0000-1.00000
FORCE          2    4237       02.260133  0.0000  0.0000-1.00000
FORCE          2    4238       02.021800  0.0000  0.0000-1.00000
FORCE          2    4239       01.698118  0.0000  0.0000-1.00000
FORCE          2    4240       01.676491  0.0000  0.0000-1.00000
FORCE          2    4241       01.548895  0.0000  0.0000-1.00000
FORCE          2    4242       01.721527  0.0000  0.0000-1.00000
FORCE          2    4243       01.906733  0.0000  0.0000-1.00000
FORCE          2    4244       01.993616  0.0000  0.0000-1.00000
FORCE          2    4245       01.685067  0.0000  0.0000-1.00000
FORCE          2    4246       01.716978  0.0000  0.0000-1.00000
FORCE          2    4247       01.790766  0.0000  0.0000-1.00000
FORCE          2    4248       01.676961  0.0000  0.0000-1.00000
FORCE          2    4249       01.638571  0.0000  0.0000-1.00000
FORCE          2    4250       02.275745  0.0000  0.0000-1.00000
FORCE          2    4251       01.930284  0.0000  0.0000-1.00000
FORCE          2    4252       01.689827  0.0000  0.0000-1.00000
FORCE          2    4253       01.457017  0.0000  0.0000-1.00000
FORCE          2    4254       01.580574  0.0000  0.0000-1.00000
FORCE          2    4255       01.651148  0.0000  0.0000-1.00000
FORCE          2    4256       01.560960  0.0000  0.0000-1.00000
FORCE          2    4257       01.121831  0.0000  0.0000-1.00000
FORCE          2    4258       01.459993  0.0000  0.0000-1.00000
FORCE          2    4259       01.744104  0.0000  0.0000-1.00000
FORCE          2    4260       01.732286  0.0000  0.0000-1.00000
FORCE          2    4261       01.655326  0.0000  0.0000-1.00000
FORCE          2    4262       01.605016  0.0000  0.0000-1.00000
FORCE          2    4263       01.147785  0.0000  0.0000-1.00000
FORCE          2    4264       01.688435  0.0000  0.0000-1.00000
FORCE          2    4265       01.748786  0.0000  0.0000-1.00000
FORCE          2    4266       01.891509  0.0000  0.0000-1.00000
FORCE          2    4267       02.298085  0.0000  0.0000-1.00000
FORCE          2    4268       01.964785  0.0000  0.0000-1.00000
FORCE          2    4269       01.823946  0.0000  0.0000-1.00000
FORCE          2    4270       01.879901  0.0000  0.0000-1.00000
FORCE          2    4271       01.961878  0.0000  0.0000-1.00000
FORCE          2    4272       02.232921  0.0000  0.0000-1.00000
FORCE          2    4273       01.869417  0.0000  0.0000-1.00000
FORCE          2    4274       02.237247  0.0000  0.0000-1.00000
FORCE          2    4275       01.868428  0.0000  0.0000-1.00000
FORCE          2    4276       02.027843  0.0000  0.0000-1.00000
FORCE          2    4277       01.697100  0.0000  0.0000-1.00000
FORCE          2    4278       01.676321  0.0000  0.0000-1.00000
FORCE          2    4279       01.544389  0.0000  0.0000-1.00000
FORCE          2    6816       00.790206  0.0000  0.0000-1.00000
FORCE          2    6817       00.468134  0.0000  0.0000-1.00000
FORCE          2    6818       01.452341  0.0000  0.0000-1.00000
FORCE          2    6819       00.869693  0.0000  0.0000-1.00000
FORCE          2    6820       00.479844  0.0000  0.0000-1.00000
FORCE          2    6821       01.782339  0.0000  0.0000-1.00000
FORCE          2    6822       00.492468  0.0000  0.0000-1.00000
FORCE          2    6823       00.828176  0.0000  0.0000-1.00000
FORCE          2    6824       00.911255  0.0000  0.0000-1.00000
FORCE          2    6825       00.928128  0.0000  0.0000-1.00000
FORCE          2    6826       00.922244  0.0000  0.0000-1.00000
FORCE          2    6827       00.913635  0.0000  0.0000-1.00000
FORCE          2    6828       00.906958  0.0000  0.0000-1.00000
FORCE          2    6829       00.891328  0.0000  0.0000-1.00000
FORCE          2    6830       00.809698  0.0000  0.0000-1.00000
FORCE          2    6831       00.484913  0.0000  0.0000-1.00000
FORCE          2    6832       01.764191  0.0000  0.0000-1.00000
FORCE          2    6833       00.480252  0.0000  0.0000-1.00000
FORCE          2    6834       00.871761  0.0000  0.0000-1.00000
FORCE          2    6835       01.455105  0.0000  0.0000-1.00000
FORCE          2    6836       00.467527  0.0000  0.0000-1.00000
FORCE          2    6837       00.790199  0.0000  0.0000-1.00000
FORCE          2    6838       00.869491  0.0000  0.0000-1.00000
FORCE          2    6839       00.972025  0.0000  0.0000-1.00000
FORCE          2    6840       01.012593  0.0000  0.0000-1.00000
FORCE          2    6841       00.972557  0.0000  0.0000-1.00000
FORCE          2    6842       00.958248  0.0000  0.0000-1.00000
FORCE          2    6843       00.919922  0.0000  0.0000-1.00000
FORCE          2    6844       00.856100  0.0000  0.0000-1.00000
FORCE          2    6845       00.850776  0.0000  0.0000-1.00000
FORCE          2    6846       00.873365  0.0000  0.0000-1.00000
FORCE          2    6847       00.911439  0.0000  0.0000-1.00000
FORCE          2    6848       00.934903  0.0000  0.0000-1.00000
FORCE          2    6849       00.887658  0.0000  0.0000-1.00000
FORCE          2    6850       00.851239  0.0000  0.0000-1.00000
FORCE          2    6851       00.916478  0.0000  0.0000-1.00000
FORCE          2    6852       00.956856  0.0000  0.0000-1.00000
FORCE          2    6853       00.967955  0.0000  0.0000-1.00000
FORCE          2    6854       01.013112  0.0000  0.0000-1.00000
FORCE          2    6855       00.972001  0.0000  0.0000-1.00000
FORCE          2    6856       00.870278  0.0000  0.0000-1.00000
FORCE          2    7065       00.278547  0.0000  0.0000-1.00000
FORCE          2    7066       00.278530  0.0000  0.0000-1.00000
ENDDATA 3876e6fc
